p cnf 2349 6671
-5 3 0
-5 4 0
5 -3 -4 0
-6 -4 0
6 4 0
-7 -3 0
7 3 0
-8 6 0
-8 7 0
8 -6 -7 0
-9 6 0
-9 3 0
9 -6 -3 0
-8 10 0
-9 10 0
-10 8 9 0
-5 11 0
-10 11 0
-11 5 10 0
-12 -11 0
12 11 0
-14 -13 0
14 13 0
-16 14 0
-16 15 0
16 -14 -15 0
-17 -9 0
17 9 0
-18 16 0
-18 17 0
18 -16 -17 0
-20 -19 0
20 19 0
-22 20 0
-22 21 0
22 -20 -21 0
-23 -22 0
23 22 0
-26 -25 0
26 25 0
-27 24 0
-27 26 0
27 -24 -26 0
-30 -29 0
30 29 0
-31 28 0
-31 30 0
31 -28 -30 0
-32 -31 0
32 31 0
-33 28 0
-33 29 0
33 -28 -29 0
-34 -28 0
34 28 0
-35 34 0
-35 30 0
35 -34 -30 0
-31 36 0
-35 36 0
-36 31 35 0
-33 37 0
-36 37 0
-37 33 36 0
-38 32 0
-38 37 0
38 -32 -37 0
-41 39 0
-41 40 0
41 -39 -40 0
-42 -40 0
42 40 0
-43 -39 0
43 39 0
-44 42 0
-44 43 0
44 -42 -43 0
-41 45 0
-44 45 0
-45 41 44 0
-46 -45 0
46 45 0
-48 -47 0
48 47 0
-50 48 0
-50 49 0
50 -48 -49 0
-51 -50 0
51 50 0
-52 -49 0
52 49 0
-53 52 0
-53 48 0
53 -52 -48 0
-53 54 0
-50 54 0
-54 53 50 0
-55 47 0
-55 49 0
55 -47 -49 0
-54 56 0
-55 56 0
-56 54 55 0
-57 51 0
-57 56 0
57 -51 -56 0
-58 46 0
-58 57 0
58 -46 -57 0
-59 38 0
-59 58 0
59 -38 -58 0
-60 50 0
-60 56 0
60 -50 -56 0
-61 45 0
-61 60 0
61 -45 -60 0
-62 -38 0
62 38 0
-63 61 0
-63 62 0
63 -61 -62 0
-64 57 0
-64 45 0
64 -57 -45 0
-65 64 0
-65 62 0
65 -64 -62 0
-66 -56 0
66 56 0
-67 66 0
-67 50 0
67 -66 -50 0
-68 45 0
-68 67 0
68 -45 -67 0
-69 68 0
-69 62 0
69 -68 -62 0
-70 51 0
-70 66 0
70 -51 -66 0
-71 70 0
-71 45 0
71 -70 -45 0
-72 62 0
-72 71 0
72 -62 -71 0
-73 62 0
-73 58 0
73 -62 -58 0
-74 46 0
-74 67 0
74 -46 -67 0
-75 74 0
-75 62 0
75 -74 -62 0
-76 46 0
-76 70 0
76 -46 -70 0
-77 76 0
-77 62 0
77 -76 -62 0
-75 78 0
-77 78 0
-78 75 77 0
-73 79 0
-78 79 0
-79 73 78 0
-80 46 0
-80 60 0
80 -46 -60 0
-81 80 0
-81 62 0
81 -80 -62 0
-79 82 0
-81 82 0
-82 79 81 0
-72 83 0
-82 83 0
-83 72 82 0
-69 84 0
-83 84 0
-84 69 83 0
-65 85 0
-84 85 0
-85 65 84 0
-63 86 0
-85 86 0
-86 63 85 0
-87 76 0
-87 38 0
87 -76 -38 0
-86 88 0
-87 88 0
-88 86 87 0
-89 38 0
-89 74 0
89 -38 -74 0
-88 90 0
-89 90 0
-90 88 89 0
-59 91 0
-90 91 0
-91 59 90 0
-92 80 0
-92 38 0
92 -80 -38 0
-91 93 0
-92 93 0
-93 91 92 0
-94 38 0
-94 71 0
94 -38 -71 0
-93 95 0
-94 95 0
-95 93 94 0
-96 68 0
-96 38 0
96 -68 -38 0
-95 97 0
-96 97 0
-97 95 96 0
-98 61 0
-98 38 0
98 -61 -38 0
-97 99 0
-98 99 0
-99 97 98 0
-100 -99 0
100 99 0
-101 27 0
-101 100 0
101 -27 -100 0
-104 -103 0
104 103 0
-106 104 0
-106 105 0
106 -104 -105 0
-108 106 0
-108 107 0
108 -106 -107 0
-109 102 0
-109 108 0
109 -102 -108 0
-110 -106 0
110 106 0
-111 107 0
-111 110 0
111 -107 -110 0
-112 111 0
-112 102 0
112 -111 -102 0
-113 -102 0
113 102 0
-114 -107 0
114 107 0
-115 114 0
-115 110 0
115 -114 -110 0
-116 113 0
-116 115 0
116 -113 -115 0
-117 115 0
-117 102 0
117 -115 -102 0
-116 118 0
-117 118 0
-118 116 117 0
-112 119 0
-118 119 0
-119 112 118 0
-120 106 0
-120 114 0
120 -106 -114 0
-121 120 0
-121 102 0
121 -120 -102 0
-119 122 0
-121 122 0
-122 119 121 0
-109 123 0
-122 123 0
-123 109 122 0
-124 -123 0
124 123 0
-125 -105 0
125 105 0
-126 104 0
-126 125 0
126 -104 -125 0
-106 127 0
-126 127 0
-127 106 126 0
-128 103 0
-128 105 0
128 -103 -105 0
-127 129 0
-128 129 0
-129 127 128 0
-130 103 0
-130 125 0
130 -103 -125 0
-130 131 0
-126 131 0
-131 130 126 0
-128 132 0
-131 132 0
-132 128 131 0
-133 129 0
-133 132 0
133 -129 -132 0
-134 113 0
-134 114 0
134 -113 -114 0
-135 102 0
-135 107 0
135 -102 -107 0
-134 136 0
-135 136 0
-136 134 135 0
-137 -136 0
137 136 0
-138 133 0
-138 137 0
138 -133 -137 0
-139 -132 0
139 132 0
-140 -129 0
140 129 0
-141 139 0
-141 140 0
141 -139 -140 0
-142 137 0
-142 141 0
142 -137 -141 0
-143 132 0
-143 140 0
143 -132 -140 0
-144 137 0
-144 143 0
144 -137 -143 0
-142 145 0
-144 145 0
-145 142 144 0
-146 129 0
-146 139 0
146 -129 -139 0
-147 137 0
-147 146 0
147 -137 -146 0
-145 148 0
-147 148 0
-148 145 147 0
-138 149 0
-148 149 0
-149 138 148 0
-150 136 0
-150 141 0
150 -136 -141 0
-149 151 0
-150 151 0
-151 149 150 0
-152 143 0
-152 136 0
152 -143 -136 0
-151 153 0
-152 153 0
-153 151 152 0
-154 146 0
-154 136 0
154 -146 -136 0
-153 155 0
-154 155 0
-155 153 154 0
-157 -156 0
157 156 0
-159 157 0
-159 158 0
159 -157 -158 0
-160 155 0
-160 159 0
160 -155 -159 0
-161 124 0
-161 160 0
161 -124 -160 0
-111 162 0
-115 162 0
-162 111 115 0
-120 163 0
-162 163 0
-163 120 162 0
-164 161 0
-164 163 0
164 -161 -163 0
-165 -155 0
165 155 0
-166 -158 0
166 158 0
-167 157 0
-167 166 0
167 -157 -166 0
-168 165 0
-168 167 0
168 -165 -167 0
-169 124 0
-169 168 0
169 -124 -168 0
-170 163 0
-170 169 0
170 -163 -169 0
-171 166 0
-171 156 0
171 -166 -156 0
-172 165 0
-172 171 0
172 -165 -171 0
-173 124 0
-173 172 0
173 -124 -172 0
-174 173 0
-174 163 0
174 -173 -163 0
-175 123 0
-175 160 0
175 -123 -160 0
-176 -163 0
176 163 0
-177 175 0
-177 176 0
177 -175 -176 0
-178 156 0
-178 158 0
178 -156 -158 0
-179 155 0
-179 178 0
179 -155 -178 0
-180 123 0
-180 179 0
180 -123 -179 0
-181 176 0
-181 180 0
181 -176 -180 0
-182 155 0
-182 171 0
182 -155 -171 0
-183 123 0
-183 182 0
183 -123 -182 0
-184 183 0
-184 176 0
184 -183 -176 0
-185 123 0
-185 168 0
185 -123 -168 0
-186 185 0
-186 176 0
186 -185 -176 0
-187 165 0
-187 159 0
187 -165 -159 0
-188 187 0
-188 124 0
188 -187 -124 0
-189 188 0
-189 176 0
189 -188 -176 0
-190 176 0
-190 169 0
190 -176 -169 0
-191 165 0
-191 178 0
191 -165 -178 0
-192 124 0
-192 191 0
192 -124 -191 0
-193 192 0
-193 176 0
193 -192 -176 0
-194 173 0
-194 176 0
194 -173 -176 0
-193 195 0
-194 195 0
-195 193 194 0
-190 196 0
-195 196 0
-196 190 195 0
-189 197 0
-196 197 0
-197 189 196 0
-198 124 0
-198 182 0
198 -124 -182 0
-199 198 0
-199 176 0
199 -198 -176 0
-197 200 0
-199 200 0
-200 197 199 0
-201 124 0
-201 179 0
201 -124 -179 0
-202 176 0
-202 201 0
202 -176 -201 0
-200 203 0
-202 203 0
-203 200 202 0
-204 155 0
-204 167 0
204 -155 -167 0
-205 124 0
-205 204 0
205 -124 -204 0
-206 205 0
-206 176 0
206 -205 -176 0
-203 207 0
-206 207 0
-207 203 206 0
-208 161 0
-208 176 0
208 -161 -176 0
-207 209 0
-208 209 0
-209 207 208 0
-210 123 0
-210 172 0
210 -123 -172 0
-211 176 0
-211 210 0
211 -176 -210 0
-209 212 0
-211 212 0
-212 209 211 0
-213 123 0
-213 191 0
213 -123 -191 0
-214 213 0
-214 176 0
214 -213 -176 0
-212 215 0
-214 215 0
-215 212 214 0
-186 216 0
-215 216 0
-216 186 215 0
-217 187 0
-217 123 0
217 -187 -123 0
-218 217 0
-218 176 0
218 -217 -176 0
-216 219 0
-218 219 0
-219 216 218 0
-184 220 0
-219 220 0
-220 184 219 0
-181 221 0
-220 221 0
-221 181 220 0
-222 123 0
-222 204 0
222 -123 -204 0
-223 222 0
-223 176 0
223 -222 -176 0
-221 224 0
-223 224 0
-224 221 223 0
-177 225 0
-224 225 0
-225 177 224 0
-174 226 0
-225 226 0
-226 174 225 0
-227 192 0
-227 163 0
227 -192 -163 0
-226 228 0
-227 228 0
-228 226 227 0
-170 229 0
-228 229 0
-229 170 228 0
-230 188 0
-230 163 0
230 -188 -163 0
-229 231 0
-230 231 0
-231 229 230 0
-232 198 0
-232 163 0
232 -198 -163 0
-231 233 0
-232 233 0
-233 231 232 0
-234 201 0
-234 163 0
234 -201 -163 0
-233 235 0
-234 235 0
-235 233 234 0
-236 205 0
-236 163 0
236 -205 -163 0
-235 237 0
-236 237 0
-237 235 236 0
-164 238 0
-237 238 0
-238 164 237 0
-239 163 0
-239 210 0
239 -163 -210 0
-238 240 0
-239 240 0
-240 238 239 0
-241 -240 0
241 240 0
-191 242 0
-172 242 0
-242 191 172 0
-242 243 0
-168 243 0
-243 242 168 0
-247 -246 0
247 246 0
-248 245 0
-248 247 0
248 -245 -247 0
-249 -248 0
249 248 0
-251 249 0
-251 250 0
251 -249 -250 0
-253 -252 0
253 252 0
-254 251 0
-254 253 0
254 -251 -253 0
-255 -250 0
255 250 0
-256 248 0
-256 255 0
256 -248 -255 0
-257 256 0
-257 253 0
257 -256 -253 0
-258 248 0
-258 250 0
258 -248 -250 0
-259 252 0
-259 258 0
259 -252 -258 0
-257 260 0
-259 260 0
-260 257 259 0
-254 261 0
-260 261 0
-261 254 260 0
-262 253 0
-262 258 0
262 -253 -258 0
-261 263 0
-262 263 0
-263 261 262 0
-264 -263 0
264 263 0
-265 244 0
-265 264 0
265 -244 -264 0
-267 -266 0
267 266 0
-268 265 0
-268 267 0
268 -265 -267 0
-269 -244 0
269 244 0
-270 269 0
-270 263 0
270 -269 -263 0
-271 267 0
-271 270 0
271 -267 -270 0
-272 244 0
-272 263 0
272 -244 -263 0
-273 272 0
-273 266 0
273 -272 -266 0
-271 274 0
-273 274 0
-274 271 273 0
-268 275 0
-274 275 0
-275 268 274 0
-276 272 0
-276 267 0
276 -272 -267 0
-275 277 0
-276 277 0
-277 275 276 0
-278 -277 0
278 277 0
-281 279 0
-281 280 0
281 -279 -280 0
-282 -279 0
282 279 0
-283 -280 0
283 280 0
-284 282 0
-284 283 0
284 -282 -283 0
-285 282 0
-285 280 0
285 -282 -280 0
-284 286 0
-285 286 0
-286 284 285 0
-281 287 0
-286 287 0
-287 281 286 0
-288 -287 0
288 287 0
-289 278 0
-289 288 0
289 -278 -288 0
-290 -285 0
290 285 0
-291 289 0
-291 290 0
291 -289 -290 0
-292 278 0
-292 287 0
292 -278 -287 0
-293 292 0
-293 290 0
293 -292 -290 0
-291 294 0
-293 294 0
-294 291 293 0
-295 277 0
-295 288 0
295 -277 -288 0
-296 295 0
-296 290 0
296 -295 -290 0
-294 297 0
-296 297 0
-297 294 296 0
-298 -297 0
298 297 0
-299 243 0
-299 298 0
299 -243 -298 0
-300 241 0
-300 299 0
300 -241 -299 0
-301 -243 0
301 243 0
-302 297 0
-302 301 0
302 -297 -301 0
-303 302 0
-303 241 0
303 -302 -241 0
-304 301 0
-304 298 0
304 -301 -298 0
-305 304 0
-305 241 0
305 -304 -241 0
-303 306 0
-305 306 0
-306 303 305 0
-300 307 0
-306 307 0
-307 300 306 0
-308 -307 0
308 307 0
-309 101 0
-309 308 0
309 -101 -308 0
-310 23 0
-310 309 0
310 -23 -309 0
-311 25 0
-311 24 0
311 -25 -24 0
-312 311 0
-312 100 0
312 -311 -100 0
-313 308 0
-313 312 0
313 -308 -312 0
-314 23 0
-314 313 0
314 -23 -313 0
-310 315 0
-314 315 0
-315 310 314 0
-316 -24 0
316 24 0
-317 316 0
-317 26 0
317 -316 -26 0
-318 100 0
-318 317 0
318 -100 -317 0
-319 308 0
-319 318 0
319 -308 -318 0
-320 319 0
-320 23 0
320 -319 -23 0
-315 321 0
-320 321 0
-321 315 320 0
-322 -321 0
322 321 0
-323 39 0
-323 42 0
323 -39 -42 0
-44 324 0
-323 324 0
-324 44 323 0
-41 325 0
-324 325 0
-325 41 324 0
-326 325 0
-326 31 0
326 -325 -31 0
-327 325 0
-327 35 0
327 -325 -35 0
-328 33 0
-328 325 0
328 -33 -325 0
-329 -325 0
329 325 0
-330 329 0
-330 31 0
330 -329 -31 0
-328 331 0
-330 331 0
-331 328 330 0
-327 332 0
-331 332 0
-332 327 331 0
-326 333 0
-332 333 0
-333 326 332 0
-334 -333 0
334 333 0
-335 66 0
-335 334 0
335 -66 -334 0
-336 51 0
-336 335 0
336 -51 -335 0
-337 334 0
-337 56 0
337 -334 -56 0
-338 51 0
-338 337 0
338 -51 -337 0
-336 339 0
-338 339 0
-339 336 338 0
-340 66 0
-340 333 0
340 -66 -333 0
-341 51 0
-341 340 0
341 -51 -340 0
-339 342 0
-341 342 0
-342 339 341 0
-343 -342 0
343 342 0
-345 -344 0
345 344 0
-347 -346 0
347 346 0
-348 345 0
-348 347 0
348 -345 -347 0
-349 346 0
-349 345 0
349 -346 -345 0
-350 346 0
-350 344 0
350 -346 -344 0
-349 351 0
-350 351 0
-351 349 350 0
-348 352 0
-351 352 0
-352 348 351 0
-353 -352 0
353 352 0
-355 347 0
-355 354 0
355 -347 -354 0
-356 346 0
-356 354 0
356 -346 -354 0
-357 -354 0
357 354 0
-358 346 0
-358 357 0
358 -346 -357 0
-356 359 0
-358 359 0
-359 356 358 0
-355 360 0
-359 360 0
-360 355 359 0
-361 -360 0
361 360 0
-362 353 0
-362 361 0
362 -353 -361 0
-363 343 0
-363 362 0
363 -343 -362 0
-364 322 0
-364 363 0
364 -322 -363 0
-365 25 0
-365 316 0
365 -25 -316 0
-317 366 0
-365 366 0
-366 317 365 0
-366 367 0
-311 367 0
-367 366 311 0
-368 -21 0
368 21 0
-369 20 0
-369 368 0
369 -20 -368 0
-370 19 0
-370 368 0
370 -19 -368 0
-369 371 0
-370 371 0
-371 369 370 0
-372 19 0
-372 21 0
372 -19 -21 0
-371 373 0
-372 373 0
-373 371 372 0
-374 -373 0
374 373 0
-375 367 0
-375 374 0
375 -367 -374 0
-376 -367 0
376 367 0
-377 376 0
-377 374 0
377 -376 -374 0
-375 378 0
-377 378 0
-378 375 377 0
-379 373 0
-379 367 0
379 -373 -367 0
-378 380 0
-379 380 0
-380 378 379 0
-369 381 0
-22 381 0
-381 369 22 0
-381 382 0
-372 382 0
-382 381 372 0
-383 -382 0
383 382 0
-384 380 0
-384 383 0
384 -380 -383 0
-385 384 0
-385 100 0
385 -384 -100 0
-386 -380 0
386 380 0
-387 386 0
-387 383 0
387 -386 -383 0
-388 100 0
-388 387 0
388 -100 -387 0
-389 386 0
-389 382 0
389 -386 -382 0
-390 389 0
-390 100 0
390 -389 -100 0
-388 391 0
-390 391 0
-391 388 390 0
-385 392 0
-391 392 0
-392 385 391 0
-393 -392 0
393 392 0
-394 364 0
-394 393 0
394 -364 -393 0
-395 353 0
-395 360 0
395 -353 -360 0
-396 343 0
-396 395 0
396 -343 -395 0
-397 322 0
-397 396 0
397 -322 -396 0
-398 393 0
-398 397 0
398 -393 -397 0
-394 399 0
-398 399 0
-399 394 398 0
-400 361 0
-400 352 0
400 -361 -352 0
-401 343 0
-401 400 0
401 -343 -400 0
-402 322 0
-402 401 0
402 -322 -401 0
-403 402 0
-403 393 0
403 -402 -393 0
-399 404 0
-403 404 0
-404 399 403 0
-405 -404 0
405 404 0
-406 345 0
-406 357 0
406 -345 -357 0
-408 -407 0
408 407 0
-409 408 0
-409 357 0
409 -408 -357 0
-410 408 0
-410 354 0
410 -408 -354 0
-409 411 0
-410 411 0
-411 409 410 0
-412 407 0
-412 354 0
412 -407 -354 0
-411 413 0
-412 413 0
-413 411 412 0
-414 -413 0
414 413 0
-415 345 0
-415 407 0
415 -345 -407 0
-416 408 0
-416 344 0
416 -408 -344 0
-417 345 0
-417 408 0
417 -345 -408 0
-416 418 0
-417 418 0
-418 416 417 0
-415 419 0
-418 419 0
-419 415 418 0
-420 414 0
-420 419 0
420 -414 -419 0
-421 347 0
-421 420 0
421 -347 -420 0
-422 -419 0
422 419 0
-423 422 0
-423 413 0
423 -422 -413 0
-424 347 0
-424 423 0
424 -347 -423 0
-425 422 0
-425 414 0
425 -422 -414 0
-426 425 0
-426 347 0
426 -425 -347 0
-424 427 0
-426 427 0
-427 424 426 0
-421 428 0
-427 428 0
-428 421 427 0
-429 406 0
-429 428 0
429 -406 -428 0
-430 -428 0
430 428 0
-431 357 0
-431 344 0
431 -357 -344 0
-432 430 0
-432 431 0
432 -430 -431 0
-433 345 0
-433 354 0
433 -345 -354 0
-434 433 0
-434 428 0
434 -433 -428 0
-432 435 0
-434 435 0
-435 432 434 0
-436 354 0
-436 344 0
436 -354 -344 0
-437 436 0
-437 428 0
437 -436 -428 0
-435 438 0
-437 438 0
-438 435 437 0
-429 439 0
-438 439 0
-439 429 438 0
-440 431 0
-440 428 0
440 -431 -428 0
-439 441 0
-440 441 0
-441 439 440 0
-442 -441 0
442 441 0
-443 322 0
-443 420 0
443 -322 -420 0
-444 443 0
-444 393 0
444 -443 -393 0
-445 343 0
-445 444 0
445 -343 -444 0
-446 322 0
-446 425 0
446 -322 -425 0
-447 446 0
-447 393 0
447 -446 -393 0
-448 343 0
-448 447 0
448 -343 -447 0
-449 322 0
-449 423 0
449 -322 -423 0
-450 393 0
-450 449 0
450 -393 -449 0
-451 343 0
-451 450 0
451 -343 -450 0
-448 452 0
-451 452 0
-452 448 451 0
-445 453 0
-452 453 0
-453 445 452 0
-454 -453 0
454 453 0
-455 454 0
-455 16 0
455 -454 -16 0
-456 442 0
-456 455 0
456 -442 -455 0
-457 405 0
-457 456 0
457 -405 -456 0
-458 13 0
-458 15 0
458 -13 -15 0
-459 454 0
-459 458 0
459 -454 -458 0
-460 442 0
-460 459 0
460 -442 -459 0
-461 405 0
-461 460 0
461 -405 -460 0
-457 462 0
-461 462 0
-462 457 461 0
-463 -15 0
463 15 0
-464 14 0
-464 463 0
464 -14 -463 0
-465 454 0
-465 464 0
465 -454 -464 0
-466 442 0
-466 465 0
466 -442 -465 0
-467 405 0
-467 466 0
467 -405 -466 0
-462 468 0
-467 468 0
-468 462 467 0
-469 18 0
-469 468 0
469 -18 -468 0
-470 12 0
-470 469 0
470 -12 -469 0
-471 -468 0
471 468 0
-472 -16 0
472 16 0
-473 472 0
-473 17 0
473 -472 -17 0
-474 471 0
-474 473 0
474 -471 -473 0
-475 12 0
-475 474 0
475 -12 -474 0
-476 471 0
-476 18 0
476 -471 -18 0
-477 12 0
-477 476 0
477 -12 -476 0
-475 478 0
-477 478 0
-478 475 477 0
-479 472 0
-479 9 0
479 -472 -9 0
-480 479 0
-480 471 0
480 -479 -471 0
-481 12 0
-481 480 0
481 -12 -480 0
-478 482 0
-481 482 0
-482 478 481 0
-483 16 0
-483 9 0
483 -16 -9 0
-484 471 0
-484 483 0
484 -471 -483 0
-485 12 0
-485 484 0
485 -12 -484 0
-482 486 0
-485 486 0
-486 482 485 0
-487 473 0
-487 468 0
487 -473 -468 0
-488 487 0
-488 12 0
488 -487 -12 0
-486 489 0
-488 489 0
-489 486 488 0
-470 490 0
-489 490 0
-490 470 489 0
-491 479 0
-491 468 0
491 -479 -468 0
-492 491 0
-492 12 0
492 -491 -12 0
-490 493 0
-492 493 0
-493 490 492 0
-494 468 0
-494 483 0
494 -468 -483 0
-495 494 0
-495 12 0
495 -494 -12 0
-493 496 0
-495 496 0
-496 493 495 0
-497 474 0
-497 11 0
497 -474 -11 0
-496 498 0
-497 498 0
-498 496 497 0
-499 -498 0
499 498 0
-500 2 0
-500 499 0
500 -2 -499 0
-501 1 0
-501 500 0
501 -1 -500 0
-502 -2 0
502 2 0
-503 502 0
-503 499 0
503 -502 -499 0
-504 1 0
-504 503 0
504 -1 -503 0
-505 -1 0
505 1 0
-506 2 0
-506 498 0
506 -2 -498 0
-507 505 0
-507 506 0
507 -505 -506 0
-504 508 0
-507 508 0
-508 504 507 0
-509 502 0
-509 498 0
509 -502 -498 0
-510 1 0
-510 509 0
510 -1 -509 0
-508 511 0
-510 511 0
-511 508 510 0
-501 512 0
-511 512 0
-512 501 511 0
-513 1 0
-513 506 0
513 -1 -506 0
-512 514 0
-513 514 0
-514 512 513 0
-515 343 0
-515 425 0
515 -343 -425 0
-516 515 0
-516 393 0
516 -515 -393 0
-254 517 0
-259 517 0
-517 254 259 0
-257 518 0
-517 518 0
-518 257 517 0
-518 519 0
-262 519 0
-519 518 262 0
-520 519 0
-520 269 0
520 -519 -269 0
-521 267 0
-521 520 0
521 -267 -520 0
-522 244 0
-522 519 0
522 -244 -519 0
-523 522 0
-523 266 0
523 -522 -266 0
-524 -519 0
524 519 0
-525 244 0
-525 524 0
525 -244 -524 0
-526 267 0
-526 525 0
526 -267 -525 0
-523 527 0
-526 527 0
-527 523 526 0
-521 528 0
-527 528 0
-528 521 527 0
-529 522 0
-529 267 0
529 -522 -267 0
-528 530 0
-529 530 0
-530 528 529 0
-531 -530 0
531 530 0
-532 531 0
-532 288 0
532 -531 -288 0
-533 532 0
-533 290 0
533 -532 -290 0
-534 530 0
-534 288 0
534 -530 -288 0
-535 534 0
-535 290 0
535 -534 -290 0
-533 536 0
-535 536 0
-536 533 535 0
-537 531 0
-537 287 0
537 -531 -287 0
-538 537 0
-538 290 0
538 -537 -290 0
-536 539 0
-538 539 0
-539 536 538 0
-540 539 0
-540 301 0
540 -539 -301 0
-541 540 0
-541 241 0
541 -540 -241 0
-542 -539 0
542 539 0
-543 301 0
-543 542 0
543 -301 -542 0
-544 241 0
-544 543 0
544 -241 -543 0
-545 542 0
-545 243 0
545 -542 -243 0
-546 545 0
-546 241 0
546 -545 -241 0
-544 547 0
-546 547 0
-547 544 546 0
-541 548 0
-547 548 0
-548 541 547 0
-549 -548 0
549 548 0
-550 23 0
-550 318 0
550 -23 -318 0
-551 549 0
-551 550 0
551 -549 -550 0
-552 23 0
-552 312 0
552 -23 -312 0
-553 549 0
-553 552 0
553 -549 -552 0
-554 23 0
-554 101 0
554 -23 -101 0
-555 554 0
-555 549 0
555 -554 -549 0
-553 556 0
-555 556 0
-556 553 555 0
-551 557 0
-556 557 0
-557 551 556 0
-558 -557 0
558 557 0
-559 516 0
-559 558 0
559 -516 -558 0
-560 343 0
-560 423 0
560 -343 -423 0
-561 393 0
-561 560 0
561 -393 -560 0
-562 561 0
-562 558 0
562 -561 -558 0
-559 563 0
-562 563 0
-563 559 562 0
-564 343 0
-564 420 0
564 -343 -420 0
-565 393 0
-565 564 0
565 -393 -564 0
-566 565 0
-566 558 0
566 -565 -558 0
-563 567 0
-566 567 0
-567 563 566 0
-568 -567 0
568 567 0
-569 442 0
-569 464 0
569 -442 -464 0
-570 568 0
-570 569 0
570 -568 -569 0
-571 396 0
-571 558 0
571 -396 -558 0
-572 393 0
-572 571 0
572 -393 -571 0
-573 363 0
-573 558 0
573 -363 -558 0
-574 393 0
-574 573 0
574 -393 -573 0
-572 575 0
-574 575 0
-575 572 574 0
-576 401 0
-576 558 0
576 -401 -558 0
-577 393 0
-577 576 0
577 -393 -576 0
-575 578 0
-577 578 0
-578 575 577 0
-579 -578 0
579 578 0
-580 570 0
-580 579 0
580 -570 -579 0
-581 442 0
-581 16 0
581 -442 -16 0
-582 568 0
-582 581 0
582 -568 -581 0
-583 582 0
-583 579 0
583 -582 -579 0
-584 442 0
-584 458 0
584 -442 -458 0
-585 568 0
-585 584 0
585 -568 -584 0
-586 585 0
-586 579 0
586 -585 -579 0
-583 587 0
-586 587 0
-587 583 586 0
-580 588 0
-587 588 0
-588 580 587 0
-589 -588 0
589 588 0
-590 589 0
-590 472 0
590 -589 -472 0
-591 590 0
-591 17 0
591 -590 -17 0
-592 591 0
-592 11 0
592 -591 -11 0
-593 16 0
-593 588 0
593 -16 -588 0
-594 593 0
-594 9 0
594 -593 -9 0
-595 12 0
-595 594 0
595 -12 -594 0
-596 589 0
-596 16 0
596 -589 -16 0
-597 9 0
-597 596 0
597 -9 -596 0
-598 597 0
-598 12 0
598 -597 -12 0
-599 590 0
-599 9 0
599 -590 -9 0
-600 599 0
-600 12 0
600 -599 -12 0
-601 17 0
-601 596 0
601 -17 -596 0
-602 12 0
-602 601 0
602 -12 -601 0
-603 591 0
-603 12 0
603 -591 -12 0
-602 604 0
-603 604 0
-604 602 603 0
-605 588 0
-605 472 0
605 -588 -472 0
-606 17 0
-606 605 0
606 -17 -605 0
-607 606 0
-607 12 0
607 -606 -12 0
-604 608 0
-607 608 0
-608 604 607 0
-609 17 0
-609 593 0
609 -17 -593 0
-610 12 0
-610 609 0
610 -12 -609 0
-608 611 0
-610 611 0
-611 608 610 0
-600 612 0
-611 612 0
-612 600 611 0
-598 613 0
-612 613 0
-613 598 612 0
-614 605 0
-614 9 0
614 -605 -9 0
-615 12 0
-615 614 0
615 -12 -614 0
-613 616 0
-615 616 0
-616 613 615 0
-595 617 0
-616 617 0
-617 595 616 0
-592 618 0
-617 618 0
-618 592 617 0
-619 2 0
-619 618 0
619 -2 -618 0
-620 1 0
-620 619 0
620 -1 -619 0
-621 502 0
-621 618 0
621 -502 -618 0
-622 1 0
-622 621 0
622 -1 -621 0
-623 -618 0
623 618 0
-624 502 0
-624 623 0
624 -502 -623 0
-625 1 0
-625 624 0
625 -1 -624 0
-626 505 0
-626 619 0
626 -505 -619 0
-625 627 0
-626 627 0
-627 625 626 0
-622 628 0
-627 628 0
-628 622 627 0
-629 2 0
-629 623 0
629 -2 -623 0
-630 1 0
-630 629 0
630 -1 -629 0
-628 631 0
-630 631 0
-631 628 630 0
-620 632 0
-631 632 0
-632 620 631 0
-633 -514 -632 0
-633 514 632 0
633 -514 632 0
633 514 -632 0
-501 634 0
-508 634 0
-634 501 508 0
-634 635 0
-510 635 0
-635 634 510 0
-635 636 0
-513 636 0
-636 635 513 0
-637 -632 -636 0
-637 632 636 0
637 -632 636 0
637 632 -636 0
-639 1 0
-639 2 0
639 -1 -2 0
-640 502 0
-640 505 0
640 -502 -505 0
-641 1 0
-641 502 0
641 -1 -502 0
-640 642 0
-641 642 0
-642 640 641 0
-639 643 0
-642 643 0
-643 639 642 0
-644 -643 0
644 643 0
-645 638 0
-645 644 0
645 -638 -644 0
-646 -638 0
646 638 0
-647 646 0
-647 644 0
647 -646 -644 0
-645 648 0
-647 648 0
-648 645 647 0
-649 646 0
-649 643 0
649 -646 -643 0
-648 650 0
-649 650 0
-650 648 649 0
-651 287 0
-651 290 0
651 -287 -290 0
-652 277 0
-652 651 0
652 -277 -651 0
-653 -651 0
653 651 0
-654 653 0
-654 278 0
654 -653 -278 0
-652 655 0
-654 655 0
-655 652 654 0
-656 -655 0
656 655 0
-657 656 0
-657 280 0
657 -656 -280 0
-658 657 0
-658 499 0
658 -657 -499 0
-659 656 0
-659 283 0
659 -656 -283 0
-660 659 0
-660 499 0
660 -659 -499 0
-658 661 0
-660 661 0
-661 658 660 0
-662 498 0
-662 659 0
662 -498 -659 0
-661 663 0
-662 663 0
-663 661 662 0
-664 655 0
-664 283 0
664 -655 -283 0
-665 498 0
-665 664 0
665 -498 -664 0
-663 666 0
-665 666 0
-666 663 665 0
-667 -666 0
667 666 0
-668 667 0
-668 644 0
668 -667 -644 0
-669 650 0
-669 668 0
669 -650 -668 0
-670 -650 0
670 650 0
-671 666 0
-671 643 0
671 -666 -643 0
-672 670 0
-672 671 0
672 -670 -671 0
-673 666 0
-673 644 0
673 -666 -644 0
-674 673 0
-674 670 0
674 -673 -670 0
-675 668 0
-675 670 0
675 -668 -670 0
-676 667 0
-676 643 0
676 -667 -643 0
-677 676 0
-677 670 0
677 -676 -670 0
-675 678 0
-677 678 0
-678 675 677 0
-674 679 0
-678 679 0
-679 674 678 0
-672 680 0
-679 680 0
-680 672 679 0
-669 681 0
-680 681 0
-681 669 680 0
-682 531 0
-682 653 0
682 -531 -653 0
-683 530 0
-683 651 0
683 -530 -651 0
-682 684 0
-683 684 0
-684 682 683 0
-685 684 0
-685 283 0
685 -684 -283 0
-686 618 0
-686 685 0
686 -618 -685 0
-687 -684 0
687 684 0
-688 280 0
-688 687 0
688 -280 -687 0
-689 623 0
-689 688 0
689 -623 -688 0
-690 283 0
-690 687 0
690 -283 -687 0
-691 623 0
-691 690 0
691 -623 -690 0
-689 692 0
-691 692 0
-692 689 691 0
-693 618 0
-693 690 0
693 -618 -690 0
-692 694 0
-693 694 0
-694 692 693 0
-686 695 0
-694 695 0
-695 686 694 0
-696 -695 0
696 695 0
-697 643 0
-697 696 0
697 -643 -696 0
-698 697 0
-698 670 0
698 -697 -670 0
-699 696 0
-699 644 0
699 -696 -644 0
-700 670 0
-700 699 0
700 -670 -699 0
-698 701 0
-700 701 0
-701 698 700 0
-702 695 0
-702 644 0
702 -695 -644 0
-703 702 0
-703 670 0
703 -702 -670 0
-701 704 0
-703 704 0
-704 701 703 0
-705 695 0
-705 643 0
705 -695 -643 0
-706 705 0
-706 670 0
706 -705 -670 0
-704 707 0
-706 707 0
-707 704 706 0
-708 650 0
-708 699 0
708 -650 -699 0
-707 709 0
-708 709 0
-709 707 708 0
-710 -681 -709 0
-710 681 709 0
710 -681 709 0
710 681 -709 0
-711 2 0
-711 505 0
711 -2 -505 0
-712 -711 0
712 711 0
-714 -713 0
714 713 0
-715 712 0
-715 714 0
715 -712 -714 0
-716 -715 0
716 715 0
-717 269 0
-717 267 0
717 -269 -267 0
-718 244 0
-718 266 0
718 -244 -266 0
-717 719 0
-718 719 0
-719 717 718 0
-720 519 0
-720 719 0
720 -519 -719 0
-721 -719 0
721 719 0
-722 721 0
-722 524 0
722 -721 -524 0
-720 723 0
-722 723 0
-723 720 722 0
-724 723 0
-724 269 0
724 -723 -269 0
-725 618 0
-725 724 0
725 -618 -724 0
-726 -723 0
726 723 0
-727 269 0
-727 726 0
727 -269 -726 0
-728 618 0
-728 727 0
728 -618 -727 0
-729 244 0
-729 726 0
729 -244 -726 0
-730 623 0
-730 729 0
730 -623 -729 0
-731 623 0
-731 727 0
731 -623 -727 0
-730 732 0
-731 732 0
-732 730 731 0
-728 733 0
-732 733 0
-733 728 732 0
-725 734 0
-733 734 0
-734 725 733 0
-735 -734 0
735 734 0
-736 711 0
-736 735 0
736 -711 -735 0
-737 716 0
-737 736 0
737 -716 -736 0
-738 735 0
-738 712 0
738 -735 -712 0
-739 716 0
-739 738 0
739 -716 -738 0
-740 734 0
-740 712 0
740 -734 -712 0
-741 716 0
-741 740 0
741 -716 -740 0
-739 742 0
-741 742 0
-742 739 741 0
-737 743 0
-742 743 0
-743 737 742 0
-744 721 0
-744 264 0
744 -721 -264 0
-745 719 0
-745 263 0
745 -719 -263 0
-744 746 0
-745 746 0
-746 744 745 0
-747 269 0
-747 746 0
747 -269 -746 0
-748 498 0
-748 747 0
748 -498 -747 0
-749 -746 0
749 746 0
-750 749 0
-750 269 0
750 -749 -269 0
-751 498 0
-751 750 0
751 -498 -750 0
-752 750 0
-752 499 0
752 -750 -499 0
-753 244 0
-753 749 0
753 -244 -749 0
-754 753 0
-754 499 0
754 -753 -499 0
-752 755 0
-754 755 0
-755 752 754 0
-751 756 0
-755 756 0
-756 751 755 0
-748 757 0
-756 757 0
-757 748 756 0
-758 -757 0
758 757 0
-759 758 0
-759 712 0
759 -758 -712 0
-760 716 0
-760 759 0
760 -716 -759 0
-761 757 0
-761 712 0
761 -757 -712 0
-762 716 0
-762 761 0
762 -716 -761 0
-760 763 0
-762 763 0
-763 760 762 0
-764 711 0
-764 758 0
764 -711 -758 0
-765 716 0
-765 764 0
765 -716 -764 0
-763 766 0
-765 766 0
-766 763 765 0
-767 -743 -766 0
-767 743 766 0
767 -743 766 0
767 743 -766 0
-768 100 0
-768 383 0
768 -100 -383 0
-769 -768 0
769 768 0
-770 367 0
-770 308 0
770 -367 -308 0
-771 -365 0
771 365 0
-772 770 0
-772 771 0
772 -770 -771 0
-773 376 0
-773 308 0
773 -376 -308 0
-774 773 0
-774 771 0
774 -773 -771 0
-772 775 0
-774 775 0
-775 772 774 0
-776 307 0
-776 376 0
776 -307 -376 0
-777 771 0
-777 776 0
777 -771 -776 0
-775 778 0
-777 778 0
-778 775 777 0
-779 23 0
-779 100 0
779 -23 -100 0
-780 -779 0
780 779 0
-781 778 0
-781 780 0
781 -778 -780 0
-782 769 0
-782 781 0
782 -769 -781 0
-783 782 0
-783 343 0
783 -782 -343 0
-784 -778 0
784 778 0
-785 784 0
-785 780 0
785 -784 -780 0
-786 769 0
-786 785 0
786 -769 -785 0
-787 786 0
-787 343 0
787 -786 -343 0
-788 779 0
-788 784 0
788 -779 -784 0
-789 769 0
-789 788 0
789 -769 -788 0
-790 343 0
-790 789 0
790 -343 -789 0
-787 791 0
-790 791 0
-791 787 790 0
-783 792 0
-791 792 0
-792 783 791 0
-793 346 0
-793 407 0
793 -346 -407 0
-794 408 0
-794 347 0
794 -408 -347 0
-793 795 0
-794 795 0
-795 793 794 0
-796 792 0
-796 795 0
796 -792 -795 0
-797 -792 0
797 792 0
-798 -795 0
798 795 0
-799 797 0
-799 798 0
799 -797 -798 0
-796 800 0
-799 800 0
-800 796 799 0
-801 -800 0
801 800 0
-802 801 0
-802 408 0
802 -801 -408 0
-803 802 0
-803 498 0
803 -802 -498 0
-804 801 0
-804 407 0
804 -801 -407 0
-805 804 0
-805 499 0
805 -804 -499 0
-806 802 0
-806 499 0
806 -802 -499 0
-805 807 0
-806 807 0
-807 805 806 0
-803 808 0
-807 808 0
-808 803 807 0
-809 408 0
-809 800 0
809 -408 -800 0
-810 498 0
-810 809 0
810 -498 -809 0
-808 811 0
-810 811 0
-811 808 810 0
-812 -811 0
812 811 0
-813 711 0
-813 812 0
813 -711 -812 0
-815 -814 0
815 814 0
-816 815 0
-816 712 0
816 -815 -712 0
-817 -816 0
817 816 0
-818 813 0
-818 817 0
818 -813 -817 0
-819 712 0
-819 811 0
819 -712 -811 0
-820 817 0
-820 819 0
820 -817 -819 0
-821 712 0
-821 812 0
821 -712 -812 0
-822 821 0
-822 817 0
822 -821 -817 0
-820 823 0
-822 823 0
-823 820 822 0
-818 824 0
-823 824 0
-824 818 823 0
-825 549 0
-825 367 0
825 -549 -367 0
-826 771 0
-826 825 0
826 -771 -825 0
-827 548 0
-827 376 0
827 -548 -376 0
-828 771 0
-828 827 0
828 -771 -827 0
-829 376 0
-829 549 0
829 -376 -549 0
-830 829 0
-830 771 0
830 -829 -771 0
-828 831 0
-830 831 0
-831 828 830 0
-826 832 0
-831 832 0
-832 826 831 0
-833 832 0
-833 780 0
833 -832 -780 0
-834 769 0
-834 833 0
834 -769 -833 0
-835 343 0
-835 834 0
835 -343 -834 0
-836 -832 0
836 832 0
-837 780 0
-837 836 0
837 -780 -836 0
-838 769 0
-838 837 0
838 -769 -837 0
-839 343 0
-839 838 0
839 -343 -838 0
-835 840 0
-839 840 0
-840 835 839 0
-841 779 0
-841 836 0
841 -779 -836 0
-842 769 0
-842 841 0
842 -769 -841 0
-843 343 0
-843 842 0
843 -343 -842 0
-840 844 0
-843 844 0
-844 840 843 0
-845 844 0
-845 795 0
845 -844 -795 0
-846 -844 0
846 844 0
-847 846 0
-847 798 0
847 -846 -798 0
-845 848 0
-847 848 0
-848 845 847 0
-849 408 0
-849 848 0
849 -408 -848 0
-850 849 0
-850 618 0
850 -849 -618 0
-851 -848 0
851 848 0
-852 408 0
-852 851 0
852 -408 -851 0
-853 618 0
-853 852 0
853 -618 -852 0
-854 407 0
-854 851 0
854 -407 -851 0
-855 854 0
-855 623 0
855 -854 -623 0
-856 623 0
-856 852 0
856 -623 -852 0
-855 857 0
-856 857 0
-857 855 856 0
-853 858 0
-857 858 0
-858 853 857 0
-850 859 0
-858 859 0
-859 850 858 0
-860 859 0
-860 712 0
860 -859 -712 0
-861 860 0
-861 817 0
861 -860 -817 0
-862 -859 0
862 859 0
-863 862 0
-863 712 0
863 -862 -712 0
-864 817 0
-864 863 0
864 -817 -863 0
-861 865 0
-864 865 0
-865 861 864 0
-866 711 0
-866 862 0
866 -711 -862 0
-867 817 0
-867 866 0
867 -817 -866 0
-865 868 0
-867 868 0
-868 865 867 0
-869 -824 -868 0
-869 824 868 0
869 -824 868 0
869 824 -868 0
-871 -870 0
871 870 0
-872 712 0
-872 871 0
872 -712 -871 0
-873 -872 0
873 872 0
-874 618 0
-874 247 0
874 -618 -247 0
-875 -245 0
875 245 0
-876 874 0
-876 875 0
876 -874 -875 0
-877 618 0
-877 246 0
877 -618 -246 0
-878 877 0
-878 875 0
878 -877 -875 0
-879 623 0
-879 246 0
879 -623 -246 0
-880 879 0
-880 875 0
880 -879 -875 0
-878 881 0
-880 881 0
-881 878 880 0
-882 623 0
-882 247 0
882 -623 -247 0
-883 882 0
-883 875 0
883 -882 -875 0
-881 884 0
-883 884 0
-884 881 883 0
-876 885 0
-884 885 0
-885 876 884 0
-886 879 0
-886 245 0
886 -879 -245 0
-885 887 0
-886 887 0
-887 885 886 0
-888 248 0
-888 618 0
888 -248 -618 0
-889 245 0
-889 246 0
889 -245 -246 0
-890 618 0
-890 889 0
890 -618 -889 0
-891 248 0
-891 623 0
891 -248 -623 0
-892 247 0
-892 875 0
892 -247 -875 0
-893 892 0
-893 623 0
893 -892 -623 0
-894 889 0
-894 623 0
894 -889 -623 0
-893 895 0
-894 895 0
-895 893 894 0
-891 896 0
-895 896 0
-896 891 895 0
-897 246 0
-897 875 0
897 -246 -875 0
-898 618 0
-898 897 0
898 -618 -897 0
-896 899 0
-898 899 0
-899 896 898 0
-900 892 0
-900 618 0
900 -892 -618 0
-899 901 0
-900 901 0
-901 899 900 0
-890 902 0
-901 902 0
-902 890 901 0
-888 903 0
-902 903 0
-903 888 902 0
-904 903 0
-904 712 0
904 -903 -712 0
-905 887 0
-905 904 0
905 -887 -904 0
-906 873 0
-906 905 0
906 -873 -905 0
-907 -887 0
907 887 0
-908 907 0
-908 904 0
908 -907 -904 0
-909 873 0
-909 908 0
909 -873 -908 0
-910 -903 0
910 903 0
-911 711 0
-911 910 0
911 -711 -910 0
-912 907 0
-912 911 0
912 -907 -911 0
-913 873 0
-913 912 0
913 -873 -912 0
-914 910 0
-914 712 0
914 -910 -712 0
-915 907 0
-915 914 0
915 -907 -914 0
-916 873 0
-916 915 0
916 -873 -915 0
-913 917 0
-916 917 0
-917 913 916 0
-909 918 0
-917 918 0
-918 909 917 0
-919 711 0
-919 903 0
919 -711 -903 0
-920 907 0
-920 919 0
920 -907 -919 0
-921 873 0
-921 920 0
921 -873 -920 0
-918 922 0
-921 922 0
-922 918 921 0
-923 887 0
-923 914 0
923 -887 -914 0
-924 873 0
-924 923 0
924 -873 -923 0
-922 925 0
-924 925 0
-925 922 924 0
-926 887 0
-926 911 0
926 -887 -911 0
-927 873 0
-927 926 0
927 -873 -926 0
-925 928 0
-927 928 0
-928 925 927 0
-906 929 0
-928 929 0
-929 906 928 0
-930 246 0
-930 499 0
930 -246 -499 0
-931 930 0
-931 245 0
931 -930 -245 0
-932 247 0
-932 499 0
932 -247 -499 0
-933 932 0
-933 875 0
933 -932 -875 0
-934 930 0
-934 875 0
934 -930 -875 0
-935 498 0
-935 246 0
935 -498 -246 0
-936 935 0
-936 875 0
936 -935 -875 0
-934 937 0
-936 937 0
-937 934 936 0
-933 938 0
-937 938 0
-938 933 937 0
-939 498 0
-939 247 0
939 -498 -247 0
-940 939 0
-940 875 0
940 -939 -875 0
-938 941 0
-940 941 0
-941 938 940 0
-931 942 0
-941 942 0
-942 931 941 0
-943 248 0
-943 498 0
943 -248 -498 0
-944 498 0
-944 892 0
944 -498 -892 0
-945 498 0
-945 897 0
945 -498 -897 0
-946 889 0
-946 499 0
946 -889 -499 0
-947 892 0
-947 499 0
947 -892 -499 0
-946 948 0
-947 948 0
-948 946 947 0
-949 248 0
-949 499 0
949 -248 -499 0
-948 950 0
-949 950 0
-950 948 949 0
-945 951 0
-950 951 0
-951 945 950 0
-944 952 0
-951 952 0
-952 944 951 0
-953 498 0
-953 889 0
953 -498 -889 0
-952 954 0
-953 954 0
-954 952 953 0
-943 955 0
-954 955 0
-955 943 954 0
-956 -955 0
956 955 0
-957 711 0
-957 956 0
957 -711 -956 0
-958 942 0
-958 957 0
958 -942 -957 0
-959 873 0
-959 958 0
959 -873 -958 0
-960 712 0
-960 955 0
960 -712 -955 0
-961 942 0
-961 960 0
961 -942 -960 0
-962 873 0
-962 961 0
962 -873 -961 0
-963 956 0
-963 712 0
963 -956 -712 0
-964 963 0
-964 942 0
964 -963 -942 0
-965 873 0
-965 964 0
965 -873 -964 0
-966 711 0
-966 955 0
966 -711 -955 0
-967 -942 0
967 942 0
-968 966 0
-968 967 0
968 -966 -967 0
-969 873 0
-969 968 0
969 -873 -968 0
-970 957 0
-970 967 0
970 -957 -967 0
-971 873 0
-971 970 0
971 -873 -970 0
-972 960 0
-972 967 0
972 -960 -967 0
-973 873 0
-973 972 0
973 -873 -972 0
-974 963 0
-974 967 0
974 -963 -967 0
-975 873 0
-975 974 0
975 -873 -974 0
-973 976 0
-975 976 0
-976 973 975 0
-971 977 0
-976 977 0
-977 971 976 0
-969 978 0
-977 978 0
-978 969 977 0
-965 979 0
-978 979 0
-979 965 978 0
-962 980 0
-979 980 0
-980 962 979 0
-959 981 0
-980 981 0
-981 959 980 0
-982 -929 -981 0
-982 929 981 0
982 -929 981 0
982 929 -981 0
-983 113 0
-983 26 0
983 -113 -26 0
-984 104 0
-984 983 0
984 -104 -983 0
-985 984 0
-985 875 0
985 -984 -875 0
-986 34 0
-986 52 0
986 -34 -52 0
-987 986 0
-987 408 0
987 -986 -408 0
-988 987 0
-988 43 0
988 -987 -43 0
-989 -988 0
989 988 0
-990 985 0
-990 989 0
990 -985 -989 0
-991 6 0
-991 368 0
991 -6 -368 0
-992 345 0
-992 991 0
992 -345 -991 0
-993 14 0
-993 992 0
993 -14 -992 0
-994 990 0
-994 993 0
994 -990 -993 0
-995 255 0
-995 283 0
995 -255 -283 0
-996 995 0
-996 269 0
996 -995 -269 0
-997 996 0
-997 166 0
997 -996 -166 0
-998 994 0
-998 997 0
998 -994 -997 0
-999 -993 0
999 993 0
-1000 985 0
-1000 988 0
1000 -985 -988 0
-1001 999 0
-1001 1000 0
1001 -999 -1000 0
-1002 997 0
-1002 1001 0
1002 -997 -1001 0
-1003 -985 0
1003 985 0
-1004 988 0
-1004 1003 0
1004 -988 -1003 0
-1005 999 0
-1005 1004 0
1005 -999 -1004 0
-1006 1005 0
-1006 997 0
1006 -1005 -997 0
-1007 999 0
-1007 990 0
1007 -999 -990 0
-1008 1007 0
-1008 997 0
1008 -1007 -997 0
-1009 -997 0
1009 997 0
-1010 1000 0
-1010 993 0
1010 -1000 -993 0
-1011 1009 0
-1011 1010 0
1011 -1009 -1010 0
-1012 1004 0
-1012 993 0
1012 -1004 -993 0
-1013 1009 0
-1013 1012 0
1013 -1009 -1012 0
-1014 989 0
-1014 1003 0
1014 -989 -1003 0
-1015 1014 0
-1015 993 0
1015 -1014 -993 0
-1016 1009 0
-1016 1015 0
1016 -1009 -1015 0
-1017 1009 0
-1017 1005 0
1017 -1009 -1005 0
-1018 999 0
-1018 1014 0
1018 -999 -1014 0
-1019 1009 0
-1019 1018 0
1019 -1009 -1018 0
-1020 1009 0
-1020 1007 0
1020 -1009 -1007 0
-1019 1021 0
-1020 1021 0
-1021 1019 1020 0
-1017 1022 0
-1021 1022 0
-1022 1017 1021 0
-1023 1009 0
-1023 1001 0
1023 -1009 -1001 0
-1022 1024 0
-1023 1024 0
-1024 1022 1023 0
-1016 1025 0
-1024 1025 0
-1025 1016 1024 0
-1026 1009 0
-1026 994 0
1026 -1009 -994 0
-1025 1027 0
-1026 1027 0
-1027 1025 1026 0
-1013 1028 0
-1027 1028 0
-1028 1013 1027 0
-1011 1029 0
-1028 1029 0
-1029 1011 1028 0
-1030 1018 0
-1030 997 0
1030 -1018 -997 0
-1029 1031 0
-1030 1031 0
-1031 1029 1030 0
-1008 1032 0
-1031 1032 0
-1032 1008 1031 0
-1006 1033 0
-1032 1033 0
-1033 1006 1032 0
-1002 1034 0
-1033 1034 0
-1034 1002 1033 0
-1035 1015 0
-1035 997 0
1035 -1015 -997 0
-1034 1036 0
-1035 1036 0
-1036 1034 1035 0
-998 1037 0
-1036 1037 0
-1037 998 1036 0
-1038 1012 0
-1038 997 0
1038 -1012 -997 0
-1037 1039 0
-1038 1039 0
-1039 1037 1038 0
-1040 -1039 0
1040 1039 0
-1042 1041 0
-1042 505 0
1042 -1041 -505 0
-1043 1040 0
-1043 1042 0
1043 -1040 -1042 0
-1044 2 0
-1044 1043 0
1044 -2 -1043 0
-1045 1039 0
-1045 1042 0
1045 -1039 -1042 0
-1046 502 0
-1046 1045 0
1046 -502 -1045 0
-1047 502 0
-1047 1043 0
1047 -502 -1043 0
-1048 -1041 0
1048 1041 0
-1049 1 0
-1049 1048 0
1049 -1 -1048 0
-1050 1040 0
-1050 1049 0
1050 -1040 -1049 0
-1051 1050 0
-1051 502 0
1051 -1050 -502 0
-1052 1048 0
-1052 505 0
1052 -1048 -505 0
-1053 1040 0
-1053 1052 0
1053 -1040 -1052 0
-1054 502 0
-1054 1053 0
1054 -502 -1053 0
-1051 1055 0
-1054 1055 0
-1055 1051 1054 0
-1047 1056 0
-1055 1056 0
-1056 1047 1055 0
-1057 1039 0
-1057 1052 0
1057 -1039 -1052 0
-1058 502 0
-1058 1057 0
1058 -502 -1057 0
-1056 1059 0
-1058 1059 0
-1059 1056 1058 0
-1060 1039 0
-1060 1049 0
1060 -1039 -1049 0
-1061 502 0
-1061 1060 0
1061 -502 -1060 0
-1059 1062 0
-1061 1062 0
-1062 1059 1061 0
-1046 1063 0
-1062 1063 0
-1063 1046 1062 0
-1064 2 0
-1064 1053 0
1064 -2 -1053 0
-1063 1065 0
-1064 1065 0
-1065 1063 1064 0
-1066 1050 0
-1066 2 0
1066 -1050 -2 0
-1065 1067 0
-1066 1067 0
-1067 1065 1066 0
-1044 1068 0
-1067 1068 0
-1068 1044 1067 0
-1069 -1068 0
1069 1068 0
-1071 -1070 0
1071 1070 0
-1072 1069 0
-1072 1071 0
1072 -1069 -1071 0
-1073 408 0
-1073 52 0
1073 -408 -52 0
-1074 34 0
-1074 1073 0
1074 -34 -1073 0
-1075 43 0
-1075 1074 0
1075 -43 -1074 0
-1076 166 0
-1076 283 0
1076 -166 -283 0
-1077 269 0
-1077 1076 0
1077 -269 -1076 0
-1078 255 0
-1078 1077 0
1078 -255 -1077 0
-1079 -1078 0
1079 1078 0
-1080 1079 0
-1080 1003 0
1080 -1079 -1003 0
-1081 6 0
-1081 14 0
1081 -6 -14 0
-1082 345 0
-1082 1081 0
1082 -345 -1081 0
-1083 368 0
-1083 1082 0
1083 -368 -1082 0
-1084 1080 0
-1084 1083 0
1084 -1080 -1083 0
-1085 1075 0
-1085 1084 0
1085 -1075 -1084 0
-1086 985 0
-1086 1078 0
1086 -985 -1078 0
-1087 -1083 0
1087 1083 0
-1088 1086 0
-1088 1087 0
1088 -1086 -1087 0
-1089 1088 0
-1089 1075 0
1089 -1088 -1075 0
-1090 1078 0
-1090 1003 0
1090 -1078 -1003 0
-1091 1090 0
-1091 1087 0
1091 -1090 -1087 0
-1092 1091 0
-1092 1075 0
1092 -1091 -1075 0
-1093 985 0
-1093 1079 0
1093 -985 -1079 0
-1094 1093 0
-1094 1087 0
1094 -1093 -1087 0
-1095 1075 0
-1095 1094 0
1095 -1075 -1094 0
-1096 1080 0
-1096 1087 0
1096 -1080 -1087 0
-1097 1096 0
-1097 1075 0
1097 -1096 -1075 0
-1098 1086 0
-1098 1083 0
1098 -1086 -1083 0
-1099 -1075 0
1099 1075 0
-1100 1098 0
-1100 1099 0
1100 -1098 -1099 0
-1101 1094 0
-1101 1099 0
1101 -1094 -1099 0
-1102 1096 0
-1102 1099 0
1102 -1096 -1099 0
-1101 1103 0
-1102 1103 0
-1103 1101 1102 0
-1104 1091 0
-1104 1099 0
1104 -1091 -1099 0
-1103 1105 0
-1104 1105 0
-1105 1103 1104 0
-1106 1088 0
-1106 1099 0
1106 -1088 -1099 0
-1105 1107 0
-1106 1107 0
-1107 1105 1106 0
-1108 1099 0
-1108 1084 0
1108 -1099 -1084 0
-1107 1109 0
-1108 1109 0
-1109 1107 1108 0
-1110 1093 0
-1110 1083 0
1110 -1093 -1083 0
-1111 1099 0
-1111 1110 0
1111 -1099 -1110 0
-1109 1112 0
-1111 1112 0
-1112 1109 1111 0
-1113 1090 0
-1113 1083 0
1113 -1090 -1083 0
-1114 1113 0
-1114 1099 0
1114 -1113 -1099 0
-1112 1115 0
-1114 1115 0
-1115 1112 1114 0
-1100 1116 0
-1115 1116 0
-1116 1100 1115 0
-1097 1117 0
-1116 1117 0
-1117 1097 1116 0
-1095 1118 0
-1117 1118 0
-1118 1095 1117 0
-1092 1119 0
-1118 1119 0
-1119 1092 1118 0
-1089 1120 0
-1119 1120 0
-1120 1089 1119 0
-1085 1121 0
-1120 1121 0
-1121 1085 1120 0
-1122 1075 0
-1122 1110 0
1122 -1075 -1110 0
-1121 1123 0
-1122 1123 0
-1123 1121 1122 0
-1124 1075 0
-1124 1113 0
1124 -1075 -1113 0
-1123 1125 0
-1124 1125 0
-1125 1123 1124 0
-1126 -1125 0
1126 1125 0
-1127 1126 0
-1127 1042 0
1127 -1126 -1042 0
-1128 502 0
-1128 1127 0
1128 -502 -1127 0
-1129 1126 0
-1129 1049 0
1129 -1126 -1049 0
-1130 502 0
-1130 1129 0
1130 -502 -1129 0
-1131 1126 0
-1131 1052 0
1131 -1126 -1052 0
-1132 502 0
-1132 1131 0
1132 -502 -1131 0
-1130 1133 0
-1132 1133 0
-1133 1130 1132 0
-1128 1134 0
-1133 1134 0
-1134 1128 1133 0
-1135 1052 0
-1135 1125 0
1135 -1052 -1125 0
-1136 502 0
-1136 1135 0
1136 -502 -1135 0
-1134 1137 0
-1136 1137 0
-1137 1134 1136 0
-1138 1125 0
-1138 1049 0
1138 -1125 -1049 0
-1139 502 0
-1139 1138 0
1139 -502 -1138 0
-1137 1140 0
-1139 1140 0
-1140 1137 1139 0
-1141 1042 0
-1141 1125 0
1141 -1042 -1125 0
-1142 502 0
-1142 1141 0
1142 -502 -1141 0
-1140 1143 0
-1142 1143 0
-1143 1140 1142 0
-1144 1131 0
-1144 2 0
1144 -1131 -2 0
-1143 1145 0
-1144 1145 0
-1145 1143 1144 0
-1146 2 0
-1146 1129 0
1146 -2 -1129 0
-1145 1147 0
-1146 1147 0
-1147 1145 1146 0
-1148 2 0
-1148 1127 0
1148 -2 -1127 0
-1147 1149 0
-1148 1149 0
-1149 1147 1148 0
-1150 -1149 0
1150 1149 0
-1151 1150 0
-1151 1071 0
1151 -1150 -1071 0
-1152 -1072 -1151 0
-1152 1072 1151 0
1152 -1072 1151 0
1152 1072 -1151 0
-1153 17 0
-1153 11 0
1153 -17 -11 0
-1154 590 0
-1154 1153 0
1154 -590 -1153 0
-1155 -590 0
1155 590 0
-1156 -1153 0
1156 1153 0
-1157 1155 0
-1157 1156 0
1157 -1155 -1156 0
-1154 1158 0
-1157 1158 0
-1158 1154 1157 0
-1159 471 0
-1159 472 0
1159 -471 -472 0
-1160 -1159 0
1160 1159 0
-1161 1160 0
-1161 1156 0
1161 -1160 -1156 0
-1162 1159 0
-1162 1153 0
1162 -1159 -1153 0
-1161 1163 0
-1162 1163 0
-1163 1161 1162 0
-1164 -1158 -1163 0
-1164 1158 1163 0
1164 -1158 1163 0
1164 1158 -1163 0
-1165 442 0
-1165 568 0
1165 -442 -568 0
-1166 1165 0
-1166 579 0
1166 -1165 -579 0
-1167 -1166 0
1167 1166 0
-1168 13 0
-1168 463 0
1168 -13 -463 0
-16 1169 0
-1168 1169 0
-1169 16 1168 0
-1170 -1169 0
1170 1169 0
-1171 1167 0
-1171 1170 0
1171 -1167 -1170 0
-1172 1166 0
-1172 1169 0
1172 -1166 -1169 0
-1171 1173 0
-1172 1173 0
-1173 1171 1172 0
-1174 442 0
-1174 454 0
1174 -442 -454 0
-1175 405 0
-1175 1174 0
1175 -405 -1174 0
-1176 1175 0
-1176 1169 0
1176 -1175 -1169 0
-1177 -1175 0
1177 1175 0
-1178 1170 0
-1178 1177 0
1178 -1170 -1177 0
-1176 1179 0
-1178 1179 0
-1179 1176 1178 0
-1180 -1173 -1179 0
-1180 1173 1179 0
1180 -1173 1179 0
1180 1173 -1179 0
-1181 408 0
-1181 792 0
1181 -408 -792 0
-1182 347 0
-1182 1181 0
1182 -347 -1181 0
-1183 797 0
-1183 407 0
1183 -797 -407 0
-1184 1183 0
-1184 347 0
1184 -1183 -347 0
-1185 407 0
-1185 792 0
1185 -407 -792 0
-1186 1185 0
-1186 346 0
1186 -1185 -346 0
-1184 1187 0
-1186 1187 0
-1187 1184 1186 0
-1182 1188 0
-1187 1188 0
-1188 1182 1187 0
-1189 1185 0
-1189 347 0
1189 -1185 -347 0
-1188 1190 0
-1189 1190 0
-1190 1188 1189 0
-1191 1190 0
-1191 354 0
1191 -1190 -354 0
-1192 -1190 0
1192 1190 0
-1193 1192 0
-1193 357 0
1193 -1192 -357 0
-1191 1194 0
-1193 1194 0
-1194 1191 1193 0
-1195 1194 0
-1195 344 0
1195 -1194 -344 0
-1196 -1194 0
1196 1194 0
-1197 1196 0
-1197 345 0
1197 -1196 -345 0
-1195 1198 0
-1197 1198 0
-1198 1195 1197 0
-1199 407 0
-1199 347 0
1199 -407 -347 0
-1200 1199 0
-1200 846 0
1200 -1199 -846 0
-1201 844 0
-1201 793 0
1201 -844 -793 0
-1200 1202 0
-1201 1202 0
-1202 1200 1201 0
-1203 844 0
-1203 794 0
1203 -844 -794 0
-1202 1204 0
-1203 1204 0
-1204 1202 1203 0
-1205 844 0
-1205 1199 0
1205 -844 -1199 0
-1204 1206 0
-1205 1206 0
-1206 1204 1205 0
-1207 -1206 0
1207 1206 0
-1208 1207 0
-1208 357 0
1208 -1207 -357 0
-1209 1206 0
-1209 354 0
1209 -1206 -354 0
-1208 1210 0
-1209 1210 0
-1210 1208 1209 0
-1211 -1210 0
1211 1210 0
-1212 1211 0
-1212 345 0
1212 -1211 -345 0
-1213 1210 0
-1213 344 0
1213 -1210 -344 0
-1212 1214 0
-1213 1214 0
-1214 1212 1213 0
-1215 -1198 -1214 0
-1215 1198 1214 0
1215 -1198 1214 0
1215 1198 -1214 0
-1216 -848 -800 0
-1216 848 800 0
1216 -848 800 0
1216 848 -800 0
-1217 373 0
-1217 784 0
1217 -373 -784 0
-1218 1217 0
-1218 382 0
1218 -1217 -382 0
-1219 778 0
-1219 374 0
1219 -778 -374 0
-1220 382 0
-1220 1219 0
1220 -382 -1219 0
-1221 784 0
-1221 374 0
1221 -784 -374 0
-1222 382 0
-1222 1221 0
1222 -382 -1221 0
-1220 1223 0
-1222 1223 0
-1223 1220 1222 0
-1218 1224 0
-1223 1224 0
-1224 1218 1223 0
-1225 1224 0
-1225 45 0
1225 -1224 -45 0
-1226 -1224 0
1226 1224 0
-1227 46 0
-1227 1226 0
1227 -46 -1226 0
-1225 1228 0
-1227 1228 0
-1228 1225 1227 0
-1229 832 0
-1229 374 0
1229 -832 -374 0
-1230 382 0
-1230 1229 0
1230 -382 -1229 0
-1231 836 0
-1231 374 0
1231 -836 -374 0
-1232 1231 0
-1232 382 0
1232 -1231 -382 0
-1230 1233 0
-1232 1233 0
-1233 1230 1232 0
-1234 373 0
-1234 836 0
1234 -373 -836 0
-1235 1234 0
-1235 382 0
1235 -1234 -382 0
-1233 1236 0
-1235 1236 0
-1236 1233 1235 0
-1237 -1236 0
1237 1236 0
-1238 46 0
-1238 1237 0
1238 -46 -1237 0
-1239 1236 0
-1239 45 0
1239 -1236 -45 0
-1238 1240 0
-1239 1240 0
-1240 1238 1239 0
-1241 -1228 -1240 0
-1241 1228 1240 0
1241 -1228 1240 0
1241 1228 -1240 0
-1242 382 0
-1242 374 0
1242 -382 -374 0
-1243 383 0
-1243 374 0
1243 -383 -374 0
-1242 1244 0
-1243 1244 0
-1244 1242 1243 0
-1245 373 0
-1245 383 0
1245 -373 -383 0
-1244 1246 0
-1245 1246 0
-1246 1244 1245 0
-1247 832 0
-1247 1246 0
1247 -832 -1246 0
-1248 -1246 0
1248 1246 0
-1249 1248 0
-1249 836 0
1249 -1248 -836 0
-1247 1250 0
-1249 1250 0
-1250 1247 1249 0
-1251 778 0
-1251 1246 0
1251 -778 -1246 0
-1252 784 0
-1252 1248 0
1252 -784 -1248 0
-1251 1253 0
-1252 1253 0
-1253 1251 1252 0
-1254 -1250 -1253 0
-1254 1250 1253 0
1254 -1250 1253 0
1254 1250 -1253 0
-1255 157 0
-1255 297 0
1255 -157 -297 0
-1256 156 0
-1256 298 0
1256 -156 -298 0
-1257 157 0
-1257 298 0
1257 -157 -298 0
-1256 1258 0
-1257 1258 0
-1258 1256 1257 0
-1255 1259 0
-1258 1259 0
-1259 1255 1258 0
-1260 -1257 0
1260 1257 0
-1261 1260 0
-1261 166 0
1261 -1260 -166 0
-1262 1259 0
-1262 1261 0
1262 -1259 -1261 0
-1263 1257 0
-1263 158 0
1263 -1257 -158 0
-1264 -1259 0
1264 1259 0
-1265 1263 0
-1265 1264 0
1265 -1263 -1264 0
-1266 166 0
-1266 1257 0
1266 -166 -1257 0
-1267 1264 0
-1267 1266 0
1267 -1264 -1266 0
-1268 1260 0
-1268 158 0
1268 -1260 -158 0
-1269 1264 0
-1269 1268 0
1269 -1264 -1268 0
-1270 1261 0
-1270 1264 0
1270 -1261 -1264 0
-1269 1271 0
-1270 1271 0
-1271 1269 1270 0
-1267 1272 0
-1271 1272 0
-1272 1267 1271 0
-1265 1273 0
-1272 1273 0
-1273 1265 1272 0
-1262 1274 0
-1273 1274 0
-1274 1262 1273 0
-1275 -1274 0
1275 1274 0
-1276 1275 0
-1276 110 0
1276 -1275 -110 0
-1277 129 0
-1277 1276 0
1277 -129 -1276 0
-1278 106 0
-1278 1274 0
1278 -106 -1274 0
-1279 1278 0
-1279 140 0
1279 -1278 -140 0
-1280 1275 0
-1280 106 0
1280 -1275 -106 0
-1281 1280 0
-1281 140 0
1281 -1280 -140 0
-1282 1276 0
-1282 140 0
1282 -1276 -140 0
-1281 1283 0
-1282 1283 0
-1283 1281 1282 0
-1284 110 0
-1284 1274 0
1284 -110 -1274 0
-1285 1284 0
-1285 140 0
1285 -1284 -140 0
-1283 1286 0
-1285 1286 0
-1286 1283 1285 0
-1279 1287 0
-1286 1287 0
-1287 1279 1286 0
-1277 1288 0
-1287 1288 0
-1288 1277 1287 0
-1289 -1288 0
1289 1288 0
-1290 137 0
-1290 1289 0
1290 -137 -1289 0
-1291 136 0
-1291 1288 0
1291 -136 -1288 0
-1290 1292 0
-1291 1292 0
-1292 1290 1291 0
-1293 157 0
-1293 542 0
1293 -157 -542 0
-1294 1293 0
-1294 158 0
1294 -1293 -158 0
-1295 539 0
-1295 157 0
1295 -539 -157 0
-1296 542 0
-1296 156 0
1296 -542 -156 0
-1293 1297 0
-1296 1297 0
-1297 1293 1296 0
-1295 1298 0
-1297 1298 0
-1298 1295 1297 0
-1299 -1298 0
1299 1298 0
-1300 1294 0
-1300 1299 0
1300 -1294 -1299 0
-1301 1293 0
-1301 166 0
1301 -1293 -166 0
-1302 1299 0
-1302 1301 0
1302 -1299 -1301 0
-1303 -1293 0
1303 1293 0
-1304 1303 0
-1304 166 0
1304 -1303 -166 0
-1305 1299 0
-1305 1304 0
1305 -1299 -1304 0
-1302 1306 0
-1305 1306 0
-1306 1302 1305 0
-1307 1303 0
-1307 158 0
1307 -1303 -158 0
-1308 1307 0
-1308 1299 0
1308 -1307 -1299 0
-1306 1309 0
-1308 1309 0
-1309 1306 1308 0
-1300 1310 0
-1309 1310 0
-1310 1300 1309 0
-1311 1298 0
-1311 1304 0
1311 -1298 -1304 0
-1310 1312 0
-1311 1312 0
-1312 1310 1311 0
-1313 106 0
-1313 1312 0
1313 -106 -1312 0
-1314 1313 0
-1314 140 0
1314 -1313 -140 0
-1315 -1312 0
1315 1312 0
-1316 106 0
-1316 1315 0
1316 -106 -1315 0
-1317 1316 0
-1317 140 0
1317 -1316 -140 0
-1318 110 0
-1318 1315 0
1318 -110 -1315 0
-1319 1318 0
-1319 140 0
1319 -1318 -140 0
-1320 1312 0
-1320 110 0
1320 -1312 -110 0
-1321 1320 0
-1321 140 0
1321 -1320 -140 0
-1319 1322 0
-1321 1322 0
-1322 1319 1321 0
-1317 1323 0
-1322 1323 0
-1323 1317 1322 0
-1314 1324 0
-1323 1324 0
-1324 1314 1323 0
-1325 129 0
-1325 1318 0
1325 -129 -1318 0
-1324 1326 0
-1325 1326 0
-1326 1324 1325 0
-1327 1326 0
-1327 136 0
1327 -1326 -136 0
-1328 -1326 0
1328 1326 0
-1329 137 0
-1329 1328 0
1329 -137 -1328 0
-1327 1330 0
-1329 1330 0
-1330 1327 1329 0
-1331 -1292 -1330 0
-1331 1292 1330 0
1331 -1292 1330 0
1331 1292 -1330 0
-159 1332 0
-171 1332 0
-1332 159 171 0
-1333 297 0
-1333 1332 0
1333 -297 -1332 0
-1334 -1332 0
1334 1332 0
-1335 1334 0
-1335 298 0
1335 -1334 -298 0
-1333 1336 0
-1335 1336 0
-1336 1333 1335 0
-1337 1334 0
-1337 542 0
1337 -1334 -542 0
-1338 539 0
-1338 1332 0
1338 -539 -1332 0
-1337 1339 0
-1338 1339 0
-1339 1337 1338 0
-1340 -1336 -1339 0
-1340 1336 1339 0
1340 -1336 1339 0
1340 1336 -1339 0
-1341 -684 -655 0
-1341 684 655 0
1341 -684 655 0
1341 684 -655 0
-1342 -723 -746 0
-1342 723 746 0
1342 -723 746 0
1342 723 -746 0
-1341 1343 0
-1342 1343 0
-1343 1341 1342 0
-1340 1344 0
-1343 1344 0
-1344 1340 1343 0
-143 1345 0
-141 1345 0
-1345 143 141 0
-146 1346 0
-1345 1346 0
-1346 146 1345 0
-1347 -1346 0
1347 1346 0
-1348 1275 0
-1348 1347 0
1348 -1275 -1347 0
-1349 1346 0
-1349 1274 0
1349 -1346 -1274 0
-1348 1350 0
-1349 1350 0
-1350 1348 1349 0
-1351 1346 0
-1351 1312 0
1351 -1346 -1312 0
-1352 1347 0
-1352 1315 0
1352 -1347 -1315 0
-1351 1353 0
-1352 1353 0
-1353 1351 1352 0
-1354 -1350 -1353 0
-1354 1350 1353 0
1354 -1350 1353 0
1354 1350 -1353 0
-1344 1355 0
-1354 1355 0
-1355 1344 1354 0
-1331 1356 0
-1355 1356 0
-1356 1331 1355 0
-311 1357 0
-317 1357 0
-1357 311 317 0
-1358 548 0
-1358 1357 0
1358 -548 -1357 0
-1359 -1357 0
1359 1357 0
-1360 1359 0
-1360 549 0
1360 -1359 -549 0
-1358 1361 0
-1360 1361 0
-1361 1358 1360 0
-1362 1359 0
-1362 308 0
1362 -1359 -308 0
-1363 307 0
-1363 1357 0
1363 -307 -1357 0
-1362 1364 0
-1363 1364 0
-1364 1362 1363 0
-1365 -1361 -1364 0
-1365 1361 1364 0
1365 -1361 1364 0
1365 1361 -1364 0
-1356 1366 0
-1365 1366 0
-1366 1356 1365 0
-1254 1367 0
-1366 1367 0
-1367 1254 1366 0
-1241 1368 0
-1367 1368 0
-1368 1241 1367 0
-1369 325 0
-1369 1226 0
1369 -325 -1226 0
-1370 -323 0
1370 323 0
-1371 1369 0
-1371 1370 0
1371 -1369 -1370 0
-1372 329 0
-1372 1226 0
1372 -329 -1226 0
-1373 1372 0
-1373 1370 0
1373 -1372 -1370 0
-1374 329 0
-1374 1224 0
1374 -329 -1224 0
-1375 1374 0
-1375 1370 0
1375 -1374 -1370 0
-1373 1376 0
-1375 1376 0
-1376 1373 1375 0
-1371 1377 0
-1376 1377 0
-1377 1371 1376 0
-1378 1377 0
-1378 62 0
1378 -1377 -62 0
-1379 -1377 0
1379 1377 0
-1380 1379 0
-1380 38 0
1380 -1379 -38 0
-1378 1381 0
-1380 1381 0
-1381 1378 1380 0
-1382 329 0
-1382 1237 0
1382 -329 -1237 0
-1383 1382 0
-1383 1370 0
1383 -1382 -1370 0
-1384 325 0
-1384 1237 0
1384 -325 -1237 0
-1385 1370 0
-1385 1384 0
1385 -1370 -1384 0
-1383 1386 0
-1385 1386 0
-1386 1383 1385 0
-1387 1236 0
-1387 329 0
1387 -1236 -329 0
-1388 1387 0
-1388 1370 0
1388 -1387 -1370 0
-1386 1389 0
-1388 1389 0
-1389 1386 1388 0
-1390 -1389 0
1390 1389 0
-1391 38 0
-1391 1390 0
1391 -38 -1390 0
-1392 1389 0
-1392 62 0
1392 -1389 -62 0
-1391 1393 0
-1392 1393 0
-1393 1391 1392 0
-1394 -1381 -1393 0
-1394 1381 1393 0
1394 -1381 1393 0
1394 1381 -1393 0
-1368 1395 0
-1394 1395 0
-1395 1368 1394 0
-1396 23 0
-1396 1370 0
1396 -23 -1370 0
-1397 32 0
-1397 1396 0
1397 -32 -1396 0
-1398 -1397 0
1398 1397 0
-1399 784 0
-1399 1398 0
1399 -784 -1398 0
-1400 41 0
-1400 382 0
1400 -41 -382 0
-1401 383 0
-1401 323 0
1401 -383 -323 0
-1400 1402 0
-1401 1402 0
-1402 1400 1401 0
-1403 382 0
-1403 44 0
1403 -382 -44 0
-1402 1404 0
-1403 1404 0
-1404 1402 1403 0
-1405 382 0
-1405 323 0
1405 -382 -323 0
-1404 1406 0
-1405 1406 0
-1406 1404 1405 0
-1407 -1406 0
1407 1406 0
-1408 37 0
-1408 1407 0
1408 -37 -1407 0
-1409 32 0
-1409 1408 0
1409 -32 -1408 0
-1410 -37 0
1410 37 0
-1411 1410 0
-1411 1407 0
1411 -1410 -1407 0
-1412 32 0
-1412 1411 0
1412 -32 -1411 0
-1409 1413 0
-1412 1413 0
-1413 1409 1412 0
-1414 1410 0
-1414 1406 0
1414 -1410 -1406 0
-1415 32 0
-1415 1414 0
1415 -32 -1414 0
-1413 1416 0
-1415 1416 0
-1416 1413 1415 0
-1417 -1416 0
1417 1416 0
-1418 1399 0
-1418 1417 0
1418 -1399 -1417 0
-1419 778 0
-1419 1398 0
1419 -778 -1398 0
-1420 1419 0
-1420 1417 0
1420 -1419 -1417 0
-1418 1421 0
-1420 1421 0
-1421 1418 1420 0
-1422 784 0
-1422 1397 0
1422 -784 -1397 0
-1423 1417 0
-1423 1422 0
1423 -1417 -1422 0
-1421 1424 0
-1423 1424 0
-1424 1421 1423 0
-1425 1424 0
-1425 47 0
1425 -1424 -47 0
-1426 -1424 0
1426 1424 0
-1427 48 0
-1427 1426 0
1427 -48 -1426 0
-1425 1428 0
-1427 1428 0
-1428 1425 1427 0
-1429 -1428 0
1429 1428 0
-1430 52 0
-1430 1429 0
1430 -52 -1429 0
-1431 1428 0
-1431 49 0
1431 -1428 -49 0
-1430 1432 0
-1431 1432 0
-1432 1430 1431 0
-1433 1397 0
-1433 836 0
1433 -1397 -836 0
-1434 1433 0
-1434 1417 0
1434 -1433 -1417 0
-1435 836 0
-1435 1398 0
1435 -836 -1398 0
-1436 1417 0
-1436 1435 0
1436 -1417 -1435 0
-1437 832 0
-1437 1398 0
1437 -832 -1398 0
-1438 1437 0
-1438 1417 0
1438 -1437 -1417 0
-1436 1439 0
-1438 1439 0
-1439 1436 1438 0
-1434 1440 0
-1439 1440 0
-1440 1434 1439 0
-1441 47 0
-1441 1440 0
1441 -47 -1440 0
-1442 -1440 0
1442 1440 0
-1443 1442 0
-1443 48 0
1443 -1442 -48 0
-1441 1444 0
-1443 1444 0
-1444 1441 1443 0
-1445 1444 0
-1445 49 0
1445 -1444 -49 0
-1446 -1444 0
1446 1444 0
-1447 1446 0
-1447 52 0
1447 -1446 -52 0
-1445 1448 0
-1447 1448 0
-1448 1445 1447 0
-1449 -1432 -1448 0
-1449 1432 1448 0
1449 -1432 1448 0
1449 1432 -1448 0
-1395 1450 0
-1449 1450 0
-1450 1395 1449 0
-1216 1451 0
-1450 1451 0
-1451 1216 1450 0
-1215 1452 0
-1451 1452 0
-1452 1215 1451 0
-1180 1453 0
-1452 1453 0
-1453 1180 1452 0
-1164 1454 0
-1453 1454 0
-1454 1164 1453 0
-1456 -1455 0
1456 1455 0
-1457 1039 0
-1457 1456 0
1457 -1039 -1456 0
-1458 1457 0
-1458 2 0
1458 -1457 -2 0
-1459 502 0
-1459 1457 0
1459 -502 -1457 0
-1460 1040 0
-1460 1455 0
1460 -1040 -1455 0
-1461 502 0
-1461 1460 0
1461 -502 -1460 0
-1462 1039 0
-1462 1455 0
1462 -1039 -1455 0
-1463 502 0
-1463 1462 0
1463 -502 -1462 0
-1461 1464 0
-1463 1464 0
-1464 1461 1463 0
-1465 1040 0
-1465 1456 0
1465 -1040 -1456 0
-1466 502 0
-1466 1465 0
1466 -502 -1465 0
-1464 1467 0
-1466 1467 0
-1467 1464 1466 0
-1459 1468 0
-1467 1468 0
-1468 1459 1467 0
-1458 1469 0
-1468 1469 0
-1469 1458 1468 0
-1471 505 0
-1471 1470 0
1471 -505 -1470 0
-1472 1455 0
-1472 1471 0
1472 -1455 -1471 0
-1473 -1470 0
1473 1470 0
-1474 1473 0
-1474 505 0
1474 -1473 -505 0
-1475 1456 0
-1475 1474 0
1475 -1456 -1474 0
-1476 1 0
-1476 1470 0
1476 -1 -1470 0
-1477 1456 0
-1477 1476 0
1477 -1456 -1476 0
-1478 1456 0
-1478 1471 0
1478 -1456 -1471 0
-1477 1479 0
-1478 1479 0
-1479 1477 1478 0
-1475 1480 0
-1479 1480 0
-1480 1475 1479 0
-1481 1 0
-1481 1473 0
1481 -1 -1473 0
-1482 1456 0
-1482 1481 0
1482 -1456 -1481 0
-1480 1483 0
-1482 1483 0
-1483 1480 1482 0
-1472 1484 0
-1483 1484 0
-1484 1472 1483 0
-1485 -1484 0
1485 1484 0
-1486 1469 0
-1486 1485 0
1486 -1469 -1485 0
-1487 1486 0
-1487 1071 0
1487 -1486 -1071 0
-1488 -1469 0
1488 1469 0
-1489 1488 0
-1489 1484 0
1489 -1488 -1484 0
-1490 1489 0
-1490 1071 0
1490 -1489 -1071 0
-1491 1485 0
-1491 1488 0
1491 -1485 -1488 0
-1492 1491 0
-1492 1071 0
1492 -1491 -1071 0
-1490 1493 0
-1492 1493 0
-1493 1490 1492 0
-1487 1494 0
-1493 1494 0
-1494 1487 1493 0
-1495 1456 0
-1495 1125 0
1495 -1456 -1125 0
-1496 2 0
-1496 1495 0
1496 -2 -1495 0
-1497 502 0
-1497 1495 0
1497 -502 -1495 0
-1498 1455 0
-1498 1125 0
1498 -1455 -1125 0
-1499 502 0
-1499 1498 0
1499 -502 -1498 0
-1500 1126 0
-1500 1456 0
1500 -1126 -1456 0
-1501 502 0
-1501 1500 0
1501 -502 -1500 0
-1502 1126 0
-1502 1455 0
1502 -1126 -1455 0
-1503 502 0
-1503 1502 0
1503 -502 -1502 0
-1501 1504 0
-1503 1504 0
-1504 1501 1503 0
-1499 1505 0
-1504 1505 0
-1505 1499 1504 0
-1497 1506 0
-1505 1506 0
-1506 1497 1505 0
-1496 1507 0
-1506 1507 0
-1507 1496 1506 0
-1508 1507 0
-1508 1485 0
1508 -1507 -1485 0
-1509 1508 0
-1509 1071 0
1509 -1508 -1071 0
-1510 -1507 0
1510 1507 0
-1511 1485 0
-1511 1510 0
1511 -1485 -1510 0
-1512 1511 0
-1512 1071 0
1512 -1511 -1071 0
-1513 1484 0
-1513 1510 0
1513 -1484 -1510 0
-1514 1513 0
-1514 1071 0
1514 -1513 -1071 0
-1512 1515 0
-1514 1515 0
-1515 1512 1514 0
-1509 1516 0
-1515 1516 0
-1516 1509 1515 0
-1517 -1494 -1516 0
-1517 1494 1516 0
1517 -1494 1516 0
1517 1494 -1516 0
-1454 1518 0
-1517 1518 0
-1518 1454 1517 0
-1152 1519 0
-1518 1519 0
-1519 1152 1518 0
-982 1520 0
-1519 1520 0
-1520 982 1519 0
-1522 -1521 0
1522 1521 0
-1523 1522 0
-1523 643 0
1523 -1522 -643 0
-1524 1522 0
-1524 644 0
1524 -1522 -644 0
-1525 1521 0
-1525 644 0
1525 -1521 -644 0
-1524 1526 0
-1525 1526 0
-1526 1524 1525 0
-1523 1527 0
-1526 1527 0
-1527 1523 1526 0
-1528 -1527 0
1528 1527 0
-1529 -1393 0
1529 1393 0
-1530 28 0
-1530 1529 0
1530 -28 -1529 0
-1531 623 0
-1531 1530 0
1531 -623 -1530 0
-1532 34 0
-1532 1529 0
1532 -34 -1529 0
-1533 623 0
-1533 1532 0
1533 -623 -1532 0
-1531 1534 0
-1533 1534 0
-1534 1531 1533 0
-1535 618 0
-1535 1532 0
1535 -618 -1532 0
-1534 1536 0
-1535 1536 0
-1536 1534 1535 0
-1537 34 0
-1537 1393 0
1537 -34 -1393 0
-1538 618 0
-1538 1537 0
1538 -618 -1537 0
-1536 1539 0
-1538 1539 0
-1539 1536 1538 0
-1540 1539 0
-1540 643 0
1540 -1539 -643 0
-1541 1528 0
-1541 1540 0
1541 -1528 -1540 0
-1542 1539 0
-1542 644 0
1542 -1539 -644 0
-1543 1542 0
-1543 1528 0
1543 -1542 -1528 0
-1544 -1539 0
1544 1539 0
-1545 1544 0
-1545 644 0
1545 -1544 -644 0
-1546 1545 0
-1546 1528 0
1546 -1545 -1528 0
-1547 1544 0
-1547 643 0
1547 -1544 -643 0
-1548 1528 0
-1548 1547 0
1548 -1528 -1547 0
-1546 1549 0
-1548 1549 0
-1549 1546 1548 0
-1543 1550 0
-1549 1550 0
-1550 1543 1549 0
-1541 1551 0
-1550 1551 0
-1551 1541 1550 0
-1552 1545 0
-1552 1527 0
1552 -1545 -1527 0
-1551 1553 0
-1552 1553 0
-1553 1551 1552 0
-1554 -1381 0
1554 1381 0
-1555 34 0
-1555 1554 0
1555 -34 -1554 0
-1556 1555 0
-1556 499 0
1556 -1555 -499 0
-1557 28 0
-1557 1554 0
1557 -28 -1554 0
-1558 1557 0
-1558 499 0
1558 -1557 -499 0
-1556 1559 0
-1558 1559 0
-1559 1556 1558 0
-1560 498 0
-1560 1555 0
1560 -498 -1555 0
-1559 1561 0
-1560 1561 0
-1561 1559 1560 0
-1562 1381 0
-1562 34 0
1562 -1381 -34 0
-1563 498 0
-1563 1562 0
1563 -498 -1562 0
-1561 1564 0
-1563 1564 0
-1564 1561 1563 0
-1565 -1564 0
1565 1564 0
-1566 1565 0
-1566 644 0
1566 -1565 -644 0
-1567 1527 0
-1567 1566 0
1567 -1527 -1566 0
-1568 1564 0
-1568 644 0
1568 -1564 -644 0
-1569 1528 0
-1569 1568 0
1569 -1528 -1568 0
-1570 1528 0
-1570 1566 0
1570 -1528 -1566 0
-1571 1565 0
-1571 643 0
1571 -1565 -643 0
-1572 1571 0
-1572 1528 0
1572 -1571 -1528 0
-1570 1573 0
-1572 1573 0
-1573 1570 1572 0
-1569 1574 0
-1573 1574 0
-1574 1569 1573 0
-1575 1564 0
-1575 643 0
1575 -1564 -643 0
-1576 1528 0
-1576 1575 0
1576 -1528 -1575 0
-1574 1577 0
-1576 1577 0
-1577 1574 1576 0
-1567 1578 0
-1577 1578 0
-1578 1567 1577 0
-1579 -1553 -1578 0
-1579 1553 1578 0
1579 -1553 1578 0
1579 1553 -1578 0
-1520 1580 0
-1579 1580 0
-1580 1520 1579 0
-1581 1446 0
-1581 618 0
1581 -1446 -618 0
-1582 1581 0
-1582 52 0
1582 -1581 -52 0
-1583 1446 0
-1583 623 0
1583 -1446 -623 0
-1584 52 0
-1584 1583 0
1584 -52 -1583 0
-1582 1585 0
-1584 1585 0
-1585 1582 1584 0
-1586 623 0
-1586 1444 0
1586 -623 -1444 0
-1587 52 0
-1587 1586 0
1587 -52 -1586 0
-1585 1588 0
-1587 1588 0
-1588 1585 1587 0
-1589 618 0
-1589 1444 0
1589 -618 -1444 0
-1590 1589 0
-1590 52 0
1590 -1589 -52 0
-1588 1591 0
-1590 1591 0
-1591 1588 1590 0
-1592 1583 0
-1592 49 0
1592 -1583 -49 0
-1591 1593 0
-1592 1593 0
-1593 1591 1592 0
-1594 -1593 0
1594 1593 0
-1595 1446 0
-1595 49 0
1595 -1446 -49 0
-1596 618 0
-1596 1595 0
1596 -618 -1595 0
-1597 618 0
-1597 1447 0
1597 -618 -1447 0
-1598 1445 0
-1598 623 0
1598 -1445 -623 0
-1599 1595 0
-1599 623 0
1599 -1595 -623 0
-1600 52 0
-1600 1444 0
1600 -52 -1444 0
-1601 1600 0
-1601 623 0
1601 -1600 -623 0
-1599 1602 0
-1601 1602 0
-1602 1599 1601 0
-1598 1603 0
-1602 1603 0
-1603 1598 1602 0
-1597 1604 0
-1603 1604 0
-1604 1597 1603 0
-1596 1605 0
-1604 1605 0
-1605 1596 1604 0
-1606 1600 0
-1606 618 0
1606 -1600 -618 0
-1605 1607 0
-1606 1607 0
-1607 1605 1606 0
-1608 618 0
-1608 1445 0
1608 -618 -1445 0
-1607 1609 0
-1608 1609 0
-1609 1607 1608 0
-1610 711 0
-1610 1609 0
1610 -711 -1609 0
-1611 1594 0
-1611 1610 0
1611 -1594 -1610 0
-1613 -1612 0
1613 1612 0
-1614 1613 0
-1614 712 0
1614 -1613 -712 0
-1615 -1614 0
1615 1614 0
-1616 1611 0
-1616 1615 0
1616 -1611 -1615 0
-1617 -1609 0
1617 1609 0
-1618 1617 0
-1618 712 0
1618 -1617 -712 0
-1619 1594 0
-1619 1618 0
1619 -1594 -1618 0
-1620 1619 0
-1620 1615 0
1620 -1619 -1615 0
-1621 711 0
-1621 1617 0
1621 -711 -1617 0
-1622 1594 0
-1622 1621 0
1622 -1594 -1621 0
-1623 1622 0
-1623 1615 0
1623 -1622 -1615 0
-1620 1624 0
-1623 1624 0
-1624 1620 1623 0
-1625 1609 0
-1625 712 0
1625 -1609 -712 0
-1626 1594 0
-1626 1625 0
1626 -1594 -1625 0
-1627 1615 0
-1627 1626 0
1627 -1615 -1626 0
-1624 1628 0
-1627 1628 0
-1628 1624 1627 0
-1616 1629 0
-1628 1629 0
-1629 1616 1628 0
-1630 1593 0
-1630 1618 0
1630 -1593 -1618 0
-1631 1630 0
-1631 1615 0
1631 -1630 -1615 0
-1629 1632 0
-1631 1632 0
-1632 1629 1631 0
-1633 1621 0
-1633 1593 0
1633 -1621 -1593 0
-1634 1615 0
-1634 1633 0
1634 -1615 -1633 0
-1632 1635 0
-1634 1635 0
-1635 1632 1634 0
-1636 1625 0
-1636 1593 0
1636 -1625 -1593 0
-1637 1636 0
-1637 1615 0
1637 -1636 -1615 0
-1635 1638 0
-1637 1638 0
-1638 1635 1637 0
-1639 1429 0
-1639 499 0
1639 -1429 -499 0
-1640 49 0
-1640 1639 0
1640 -49 -1639 0
-1641 1428 0
-1641 498 0
1641 -1428 -498 0
-1642 1641 0
-1642 52 0
1642 -1641 -52 0
-1643 1428 0
-1643 499 0
1643 -1428 -499 0
-1644 1643 0
-1644 52 0
1644 -1643 -52 0
-1645 498 0
-1645 1429 0
1645 -498 -1429 0
-1646 1645 0
-1646 52 0
1646 -1645 -52 0
-1647 52 0
-1647 1639 0
1647 -52 -1639 0
-1646 1648 0
-1647 1648 0
-1648 1646 1647 0
-1644 1649 0
-1648 1649 0
-1649 1644 1648 0
-1642 1650 0
-1649 1650 0
-1650 1642 1649 0
-1640 1651 0
-1650 1651 0
-1651 1640 1650 0
-1652 1431 0
-1652 498 0
1652 -1431 -498 0
-1653 1428 0
-1653 52 0
1653 -1428 -52 0
-1654 498 0
-1654 1653 0
1654 -498 -1653 0
-1655 499 0
-1655 1653 0
1655 -499 -1653 0
-1656 1429 0
-1656 49 0
1656 -1429 -49 0
-1657 1656 0
-1657 499 0
1657 -1656 -499 0
-1655 1658 0
-1657 1658 0
-1658 1655 1657 0
-1659 1431 0
-1659 499 0
1659 -1431 -499 0
-1658 1660 0
-1659 1660 0
-1660 1658 1659 0
-1661 1430 0
-1661 498 0
1661 -1430 -498 0
-1660 1662 0
-1661 1662 0
-1662 1660 1661 0
-1663 1656 0
-1663 498 0
1663 -1656 -498 0
-1662 1664 0
-1663 1664 0
-1664 1662 1663 0
-1654 1665 0
-1664 1665 0
-1665 1654 1664 0
-1652 1666 0
-1665 1666 0
-1666 1652 1665 0
-1667 -1666 0
1667 1666 0
-1668 711 0
-1668 1667 0
1668 -711 -1667 0
-1669 1651 0
-1669 1668 0
1669 -1651 -1668 0
-1670 1669 0
-1670 1615 0
1670 -1669 -1615 0
-1671 -1651 0
1671 1651 0
-1672 1668 0
-1672 1671 0
1672 -1668 -1671 0
-1673 1672 0
-1673 1615 0
1673 -1672 -1615 0
-1674 712 0
-1674 1667 0
1674 -712 -1667 0
-1675 1674 0
-1675 1671 0
1675 -1674 -1671 0
-1676 1675 0
-1676 1615 0
1676 -1675 -1615 0
-1677 1666 0
-1677 712 0
1677 -1666 -712 0
-1678 1671 0
-1678 1677 0
1678 -1671 -1677 0
-1679 1678 0
-1679 1615 0
1679 -1678 -1615 0
-1676 1680 0
-1679 1680 0
-1680 1676 1679 0
-1673 1681 0
-1680 1681 0
-1681 1673 1680 0
-1682 711 0
-1682 1666 0
1682 -711 -1666 0
-1683 1682 0
-1683 1671 0
1683 -1682 -1671 0
-1684 1683 0
-1684 1615 0
1684 -1683 -1615 0
-1681 1685 0
-1684 1685 0
-1685 1681 1684 0
-1686 1674 0
-1686 1651 0
1686 -1674 -1651 0
-1687 1615 0
-1687 1686 0
1687 -1615 -1686 0
-1685 1688 0
-1687 1688 0
-1688 1685 1687 0
-1689 1651 0
-1689 1677 0
1689 -1651 -1677 0
-1690 1689 0
-1690 1615 0
1690 -1689 -1615 0
-1688 1691 0
-1690 1691 0
-1691 1688 1690 0
-1670 1692 0
-1691 1692 0
-1692 1670 1691 0
-1693 -1638 -1692 0
-1693 1638 1692 0
1693 -1638 1692 0
1693 1638 -1692 0
-1580 1694 0
-1693 1694 0
-1694 1580 1693 0
-869 1695 0
-1694 1695 0
-1695 869 1694 0
-1697 -1696 0
1697 1696 0
-1698 712 0
-1698 1697 0
1698 -712 -1697 0
-1699 -1698 0
1699 1698 0
-1700 1211 0
-1700 623 0
1700 -1211 -623 0
-1701 1700 0
-1701 345 0
1701 -1700 -345 0
-1702 1210 0
-1702 623 0
1702 -1210 -623 0
-1703 345 0
-1703 1702 0
1703 -345 -1702 0
-1701 1704 0
-1703 1704 0
-1704 1701 1703 0
-1705 1211 0
-1705 618 0
1705 -1211 -618 0
-1706 345 0
-1706 1705 0
1706 -345 -1705 0
-1704 1707 0
-1706 1707 0
-1707 1704 1706 0
-1708 1210 0
-1708 618 0
1708 -1210 -618 0
-1709 345 0
-1709 1708 0
1709 -345 -1708 0
-1707 1710 0
-1709 1710 0
-1710 1707 1709 0
-1711 1700 0
-1711 344 0
1711 -1700 -344 0
-1710 1712 0
-1711 1712 0
-1712 1710 1711 0
-1713 712 0
-1713 1712 0
1713 -712 -1712 0
-1714 618 0
-1714 1213 0
1714 -618 -1213 0
-1715 1211 0
-1715 344 0
1715 -1211 -344 0
-1716 1715 0
-1716 618 0
1716 -1715 -618 0
-1717 618 0
-1717 1212 0
1717 -618 -1212 0
-1718 623 0
-1718 1213 0
1718 -623 -1213 0
-1719 1210 0
-1719 345 0
1719 -1210 -345 0
-1720 623 0
-1720 1719 0
1720 -623 -1719 0
-1721 1715 0
-1721 623 0
1721 -1715 -623 0
-1720 1722 0
-1721 1722 0
-1722 1720 1721 0
-1718 1723 0
-1722 1723 0
-1723 1718 1722 0
-1717 1724 0
-1723 1724 0
-1724 1717 1723 0
-1716 1725 0
-1724 1725 0
-1725 1716 1724 0
-1726 618 0
-1726 1719 0
1726 -618 -1719 0
-1725 1727 0
-1726 1727 0
-1727 1725 1726 0
-1714 1728 0
-1727 1728 0
-1728 1714 1727 0
-1729 1713 0
-1729 1728 0
1729 -1713 -1728 0
-1730 1699 0
-1730 1729 0
1730 -1699 -1729 0
-1731 -1712 0
1731 1712 0
-1732 711 0
-1732 1731 0
1732 -711 -1731 0
-1733 1728 0
-1733 1732 0
1733 -1728 -1732 0
-1734 1699 0
-1734 1733 0
1734 -1699 -1733 0
-1735 1731 0
-1735 712 0
1735 -1731 -712 0
-1736 1728 0
-1736 1735 0
1736 -1728 -1735 0
-1737 1736 0
-1737 1699 0
1737 -1736 -1699 0
-1738 -1728 0
1738 1728 0
-1739 1738 0
-1739 1735 0
1739 -1738 -1735 0
-1740 1699 0
-1740 1739 0
1740 -1699 -1739 0
-1741 1738 0
-1741 1732 0
1741 -1738 -1732 0
-1742 1699 0
-1742 1741 0
1742 -1699 -1741 0
-1740 1743 0
-1742 1743 0
-1743 1740 1742 0
-1744 1713 0
-1744 1738 0
1744 -1713 -1738 0
-1745 1699 0
-1745 1744 0
1745 -1699 -1744 0
-1743 1746 0
-1745 1746 0
-1746 1743 1745 0
-1747 711 0
-1747 1712 0
1747 -711 -1712 0
-1748 1747 0
-1748 1738 0
1748 -1747 -1738 0
-1749 1748 0
-1749 1699 0
1749 -1748 -1699 0
-1746 1750 0
-1749 1750 0
-1750 1746 1749 0
-1737 1751 0
-1750 1751 0
-1751 1737 1750 0
-1734 1752 0
-1751 1752 0
-1752 1734 1751 0
-1730 1753 0
-1752 1753 0
-1753 1730 1752 0
-1754 1196 0
-1754 344 0
1754 -1196 -344 0
-1755 498 0
-1755 1754 0
1755 -498 -1754 0
-1756 345 0
-1756 1194 0
1756 -345 -1194 0
-1757 498 0
-1757 1756 0
1757 -498 -1756 0
-1758 1195 0
-1758 499 0
1758 -1195 -499 0
-1759 1754 0
-1759 499 0
1759 -1754 -499 0
-1760 1756 0
-1760 499 0
1760 -1756 -499 0
-1759 1761 0
-1760 1761 0
-1761 1759 1760 0
-1758 1762 0
-1761 1762 0
-1762 1758 1761 0
-1763 498 0
-1763 1197 0
1763 -498 -1197 0
-1762 1764 0
-1763 1764 0
-1764 1762 1763 0
-1757 1765 0
-1764 1765 0
-1765 1757 1764 0
-1755 1766 0
-1765 1766 0
-1766 1755 1765 0
-1767 1195 0
-1767 498 0
1767 -1195 -498 0
-1766 1768 0
-1767 1768 0
-1768 1766 1767 0
-1769 -1768 0
1769 1768 0
-1770 1196 0
-1770 499 0
1770 -1196 -499 0
-1771 1770 0
-1771 344 0
1771 -1770 -344 0
-1772 498 0
-1772 1194 0
1772 -498 -1194 0
-1773 1772 0
-1773 345 0
1773 -1772 -345 0
-1774 1770 0
-1774 345 0
1774 -1770 -345 0
-1775 1194 0
-1775 499 0
1775 -1194 -499 0
-1776 345 0
-1776 1775 0
1776 -345 -1775 0
-1774 1777 0
-1776 1777 0
-1777 1774 1776 0
-1778 1196 0
-1778 498 0
1778 -1196 -498 0
-1779 345 0
-1779 1778 0
1779 -345 -1778 0
-1777 1780 0
-1779 1780 0
-1780 1777 1779 0
-1773 1781 0
-1780 1781 0
-1781 1773 1780 0
-1771 1782 0
-1781 1782 0
-1782 1771 1781 0
-1783 1769 0
-1783 1782 0
1783 -1769 -1782 0
-1784 711 0
-1784 1783 0
1784 -711 -1783 0
-1785 1699 0
-1785 1784 0
1785 -1699 -1784 0
-1786 -1782 0
1786 1782 0
-1787 1768 0
-1787 1786 0
1787 -1768 -1786 0
-1788 711 0
-1788 1787 0
1788 -711 -1787 0
-1789 1699 0
-1789 1788 0
1789 -1699 -1788 0
-1790 1769 0
-1790 1786 0
1790 -1769 -1786 0
-1791 1790 0
-1791 711 0
1791 -1790 -711 0
-1792 1699 0
-1792 1791 0
1792 -1699 -1791 0
-1793 1783 0
-1793 712 0
1793 -1783 -712 0
-1794 1699 0
-1794 1793 0
1794 -1699 -1793 0
-1795 1790 0
-1795 712 0
1795 -1790 -712 0
-1796 1699 0
-1796 1795 0
1796 -1699 -1795 0
-1797 1787 0
-1797 712 0
1797 -1787 -712 0
-1798 1699 0
-1798 1797 0
1798 -1699 -1797 0
-1796 1799 0
-1798 1799 0
-1799 1796 1798 0
-1794 1800 0
-1799 1800 0
-1800 1794 1799 0
-1801 1768 0
-1801 1782 0
1801 -1768 -1782 0
-1802 712 0
-1802 1801 0
1802 -712 -1801 0
-1803 1699 0
-1803 1802 0
1803 -1699 -1802 0
-1800 1804 0
-1803 1804 0
-1804 1800 1803 0
-1792 1805 0
-1804 1805 0
-1805 1792 1804 0
-1789 1806 0
-1805 1806 0
-1806 1789 1805 0
-1785 1807 0
-1806 1807 0
-1807 1785 1806 0
-1808 -1753 -1807 0
-1808 1753 1807 0
1808 -1753 1807 0
1808 1753 -1807 0
-1695 1809 0
-1808 1809 0
-1809 1695 1808 0
-1811 -1810 0
1811 1810 0
-1812 1811 0
-1812 712 0
1812 -1811 -712 0
-1813 -1812 0
1813 1812 0
-1814 14 0
-1814 1179 0
1814 -14 -1179 0
-1815 498 0
-1815 1814 0
1815 -498 -1814 0
-1816 -1179 0
1816 1179 0
-1817 14 0
-1817 1816 0
1817 -14 -1816 0
-1818 1817 0
-1818 499 0
1818 -1817 -499 0
-1819 13 0
-1819 1816 0
1819 -13 -1816 0
-1820 499 0
-1820 1819 0
1820 -499 -1819 0
-1818 1821 0
-1820 1821 0
-1821 1818 1820 0
-1822 498 0
-1822 1817 0
1822 -498 -1817 0
-1821 1823 0
-1822 1823 0
-1823 1821 1822 0
-1815 1824 0
-1823 1824 0
-1824 1815 1823 0
-1825 -1824 0
1825 1824 0
-1826 711 0
-1826 1825 0
1826 -711 -1825 0
-1827 1813 0
-1827 1826 0
1827 -1813 -1826 0
-1828 1824 0
-1828 712 0
1828 -1824 -712 0
-1829 1813 0
-1829 1828 0
1829 -1813 -1828 0
-1830 712 0
-1830 1825 0
1830 -712 -1825 0
-1831 1813 0
-1831 1830 0
1831 -1813 -1830 0
-1829 1832 0
-1831 1832 0
-1832 1829 1831 0
-1827 1833 0
-1832 1833 0
-1833 1827 1832 0
-1834 1173 0
-1834 14 0
1834 -1173 -14 0
-1835 618 0
-1835 1834 0
1835 -618 -1834 0
-1836 -1173 0
1836 1173 0
-1837 14 0
-1837 1836 0
1837 -14 -1836 0
-1838 618 0
-1838 1837 0
1838 -618 -1837 0
-1839 13 0
-1839 1836 0
1839 -13 -1836 0
-1840 1839 0
-1840 623 0
1840 -1839 -623 0
-1841 623 0
-1841 1837 0
1841 -623 -1837 0
-1840 1842 0
-1841 1842 0
-1842 1840 1841 0
-1838 1843 0
-1842 1843 0
-1843 1838 1842 0
-1835 1844 0
-1843 1844 0
-1844 1835 1843 0
-1845 -1844 0
1845 1844 0
-1846 711 0
-1846 1845 0
1846 -711 -1845 0
-1847 1813 0
-1847 1846 0
1847 -1813 -1846 0
-1848 712 0
-1848 1845 0
1848 -712 -1845 0
-1849 1848 0
-1849 1813 0
1849 -1848 -1813 0
-1850 1844 0
-1850 712 0
1850 -1844 -712 0
-1851 1850 0
-1851 1813 0
1851 -1850 -1813 0
-1849 1852 0
-1851 1852 0
-1852 1849 1851 0
-1847 1853 0
-1852 1853 0
-1853 1847 1852 0
-1854 -1833 -1853 0
-1854 1833 1853 0
1854 -1833 1853 0
1854 1833 -1853 0
-1809 1855 0
-1854 1855 0
-1855 1809 1854 0
-1857 -1856 0
1857 1856 0
-1858 1857 0
-1858 644 0
1858 -1857 -644 0
-1859 1856 0
-1859 644 0
1859 -1856 -644 0
-1858 1860 0
-1859 1860 0
-1860 1858 1859 0
-1861 1857 0
-1861 643 0
1861 -1857 -643 0
-1860 1862 0
-1861 1862 0
-1862 1860 1861 0
-1863 -1862 0
1863 1862 0
-1864 3 0
-1864 590 0
1864 -3 -590 0
-1865 7 0
-1865 596 0
1865 -7 -596 0
-1866 7 0
-1866 590 0
1866 -7 -590 0
-1865 1867 0
-1866 1867 0
-1867 1865 1866 0
-1868 7 0
-1868 605 0
1868 -7 -605 0
-1867 1869 0
-1868 1869 0
-1869 1867 1868 0
-1870 7 0
-1870 593 0
1870 -7 -593 0
-1869 1871 0
-1870 1871 0
-1871 1869 1870 0
-1864 1872 0
-1871 1872 0
-1872 1864 1871 0
-1873 1872 0
-1873 6 0
1873 -1872 -6 0
-1874 -1872 0
1874 1872 0
-1875 1874 0
-1875 4 0
1875 -1874 -4 0
-1873 1876 0
-1875 1876 0
-1876 1873 1875 0
-1877 1876 0
-1877 643 0
1877 -1876 -643 0
-1878 1863 0
-1878 1877 0
1878 -1863 -1877 0
-1879 1876 0
-1879 644 0
1879 -1876 -644 0
-1880 1863 0
-1880 1879 0
1880 -1863 -1879 0
-1881 -1876 0
1881 1876 0
-1882 643 0
-1882 1881 0
1882 -643 -1881 0
-1883 1882 0
-1883 1863 0
1883 -1882 -1863 0
-1884 1881 0
-1884 644 0
1884 -1881 -644 0
-1885 1884 0
-1885 1863 0
1885 -1884 -1863 0
-1883 1886 0
-1885 1886 0
-1886 1883 1885 0
-1880 1887 0
-1886 1887 0
-1887 1880 1886 0
-1878 1888 0
-1887 1888 0
-1888 1878 1887 0
-1889 1884 0
-1889 1862 0
1889 -1884 -1862 0
-1888 1890 0
-1889 1890 0
-1890 1888 1889 0
-1891 16 0
-1891 468 0
1891 -16 -468 0
-1892 7 0
-1892 1891 0
1892 -7 -1891 0
-1893 472 0
-1893 468 0
1893 -472 -468 0
-1894 7 0
-1894 1893 0
1894 -7 -1893 0
-1895 471 0
-1895 16 0
1895 -471 -16 0
-1896 7 0
-1896 1895 0
1896 -7 -1895 0
-1897 7 0
-1897 1159 0
1897 -7 -1159 0
-1896 1898 0
-1897 1898 0
-1898 1896 1897 0
-1894 1899 0
-1898 1899 0
-1899 1894 1898 0
-1892 1900 0
-1899 1900 0
-1900 1892 1899 0
-1901 3 0
-1901 1159 0
1901 -3 -1159 0
-1900 1902 0
-1901 1902 0
-1902 1900 1901 0
-1903 6 0
-1903 1902 0
1903 -6 -1902 0
-1904 -1902 0
1904 1902 0
-1905 4 0
-1905 1904 0
1905 -4 -1904 0
-1903 1906 0
-1905 1906 0
-1906 1903 1905 0
-1907 -1906 0
1907 1906 0
-1908 1907 0
-1908 644 0
1908 -1907 -644 0
-1909 1908 0
-1909 1862 0
1909 -1908 -1862 0
-1910 1908 0
-1910 1863 0
1910 -1908 -1863 0
-1911 643 0
-1911 1907 0
1911 -643 -1907 0
-1912 1863 0
-1912 1911 0
1912 -1863 -1911 0
-1910 1913 0
-1912 1913 0
-1913 1910 1912 0
-1914 1906 0
-1914 644 0
1914 -1906 -644 0
-1915 1863 0
-1915 1914 0
1915 -1863 -1914 0
-1913 1916 0
-1915 1916 0
-1916 1913 1915 0
-1917 643 0
-1917 1906 0
1917 -643 -1906 0
-1918 1917 0
-1918 1863 0
1918 -1917 -1863 0
-1916 1919 0
-1918 1919 0
-1919 1916 1918 0
-1909 1920 0
-1919 1920 0
-1920 1909 1919 0
-1921 -1890 -1920 0
-1921 1890 1920 0
1921 -1890 1920 0
1921 1890 -1920 0
-1855 1922 0
-1921 1922 0
-1922 1855 1921 0
-1923 255 0
-1923 253 0
1923 -255 -253 0
-1924 252 0
-1924 250 0
1924 -252 -250 0
-1923 1925 0
-1924 1925 0
-1925 1923 1924 0
-1926 248 0
-1926 1925 0
1926 -248 -1925 0
-1927 -1925 0
1927 1925 0
-1928 249 0
-1928 1927 0
1928 -249 -1927 0
-1926 1929 0
-1928 1929 0
-1929 1926 1928 0
-1930 -1929 0
1930 1929 0
-1931 1930 0
-1931 255 0
1931 -1930 -255 0
-1932 1931 0
-1932 499 0
1932 -1931 -499 0
-1933 1930 0
-1933 250 0
1933 -1930 -250 0
-1934 1933 0
-1934 499 0
1934 -1933 -499 0
-1932 1935 0
-1934 1935 0
-1935 1932 1934 0
-1936 1931 0
-1936 498 0
1936 -1931 -498 0
-1935 1937 0
-1936 1937 0
-1937 1935 1936 0
-1938 255 0
-1938 1929 0
1938 -255 -1929 0
-1939 498 0
-1939 1938 0
1939 -498 -1938 0
-1937 1940 0
-1939 1940 0
-1940 1937 1939 0
-1941 -1940 0
1941 1940 0
-1942 1941 0
-1942 644 0
1942 -1941 -644 0
-1944 -1943 0
1944 1943 0
-1945 1944 0
-1945 644 0
1945 -1944 -644 0
-1946 1943 0
-1946 644 0
1946 -1943 -644 0
-1945 1947 0
-1946 1947 0
-1947 1945 1946 0
-1948 1944 0
-1948 643 0
1948 -1944 -643 0
-1947 1949 0
-1948 1949 0
-1949 1947 1948 0
-1950 -1949 0
1950 1949 0
-1951 1942 0
-1951 1950 0
1951 -1942 -1950 0
-1952 643 0
-1952 1941 0
1952 -643 -1941 0
-1953 1952 0
-1953 1950 0
1953 -1952 -1950 0
-1951 1954 0
-1953 1954 0
-1954 1951 1953 0
-1955 1940 0
-1955 644 0
1955 -1940 -644 0
-1956 1950 0
-1956 1955 0
1956 -1950 -1955 0
-1954 1957 0
-1956 1957 0
-1957 1954 1956 0
-1958 643 0
-1958 1940 0
1958 -643 -1940 0
-1959 1950 0
-1959 1958 0
1959 -1950 -1958 0
-1957 1960 0
-1959 1960 0
-1960 1957 1959 0
-1961 1942 0
-1961 1949 0
1961 -1942 -1949 0
-1960 1962 0
-1961 1962 0
-1962 1960 1961 0
-1963 618 0
-1963 1938 0
1963 -618 -1938 0
-1964 1931 0
-1964 623 0
1964 -1931 -623 0
-1965 1933 0
-1965 623 0
1965 -1933 -623 0
-1964 1966 0
-1965 1966 0
-1966 1964 1965 0
-1967 1931 0
-1967 618 0
1967 -1931 -618 0
-1966 1968 0
-1967 1968 0
-1968 1966 1967 0
-1963 1969 0
-1968 1969 0
-1969 1963 1968 0
-1970 -1969 0
1970 1969 0
-1971 1970 0
-1971 644 0
1971 -1970 -644 0
-1972 1949 0
-1972 1971 0
1972 -1949 -1971 0
-1973 643 0
-1973 1969 0
1973 -643 -1969 0
-1974 1950 0
-1974 1973 0
1974 -1950 -1973 0
-1975 1970 0
-1975 643 0
1975 -1970 -643 0
-1976 1950 0
-1976 1975 0
1976 -1950 -1975 0
-1977 1950 0
-1977 1971 0
1977 -1950 -1971 0
-1976 1978 0
-1977 1978 0
-1978 1976 1977 0
-1979 1969 0
-1979 644 0
1979 -1969 -644 0
-1980 1950 0
-1980 1979 0
1980 -1950 -1979 0
-1978 1981 0
-1980 1981 0
-1981 1978 1980 0
-1974 1982 0
-1981 1982 0
-1982 1974 1981 0
-1972 1983 0
-1982 1983 0
-1983 1972 1982 0
-1984 -1962 -1983 0
-1984 1962 1983 0
1984 -1962 1983 0
1984 1962 -1983 0
-1922 1985 0
-1984 1985 0
-1985 1922 1984 0
-767 1986 0
-1985 1986 0
-1986 767 1985 0
-710 1987 0
-1986 1987 0
-1987 710 1986 0
-1989 -1988 0
1989 1988 0
-1990 1989 0
-1990 644 0
1990 -1989 -644 0
-1991 1988 0
-1991 644 0
1991 -1988 -644 0
-1990 1992 0
-1991 1992 0
-1992 1990 1991 0
-1993 1989 0
-1993 643 0
1993 -1989 -643 0
-1992 1994 0
-1993 1994 0
-1994 1992 1993 0
-1995 166 0
-1995 1339 0
1995 -166 -1339 0
-1996 618 0
-1996 1995 0
1996 -618 -1995 0
-1997 -1339 0
1997 1339 0
-1998 1997 0
-1998 166 0
1998 -1997 -166 0
-1999 1998 0
-1999 618 0
1999 -1998 -618 0
-2000 1997 0
-2000 158 0
2000 -1997 -158 0
-2001 2000 0
-2001 623 0
2001 -2000 -623 0
-2002 1998 0
-2002 623 0
2002 -1998 -623 0
-2001 2003 0
-2002 2003 0
-2003 2001 2002 0
-1999 2004 0
-2003 2004 0
-2004 1999 2003 0
-1996 2005 0
-2004 2005 0
-2005 1996 2004 0
-2006 -2005 0
2006 2005 0
-2007 2006 0
-2007 644 0
2007 -2006 -644 0
-2008 1994 0
-2008 2007 0
2008 -1994 -2007 0
-2009 2005 0
-2009 644 0
2009 -2005 -644 0
-2010 -1994 0
2010 1994 0
-2011 2009 0
-2011 2010 0
2011 -2009 -2010 0
-2012 2010 0
-2012 2007 0
2012 -2010 -2007 0
-2013 2006 0
-2013 643 0
2013 -2006 -643 0
-2014 2010 0
-2014 2013 0
2014 -2010 -2013 0
-2012 2015 0
-2014 2015 0
-2015 2012 2014 0
-2011 2016 0
-2015 2016 0
-2016 2011 2015 0
-2017 2005 0
-2017 643 0
2017 -2005 -643 0
-2018 2010 0
-2018 2017 0
2018 -2010 -2017 0
-2016 2019 0
-2018 2019 0
-2019 2016 2018 0
-2008 2020 0
-2019 2020 0
-2020 2008 2019 0
-2021 -1336 0
2021 1336 0
-2022 166 0
-2022 2021 0
2022 -166 -2021 0
-2023 498 0
-2023 2022 0
2023 -498 -2022 0
-2024 158 0
-2024 2021 0
2024 -158 -2021 0
-2025 2024 0
-2025 499 0
2025 -2024 -499 0
-2026 2022 0
-2026 499 0
2026 -2022 -499 0
-2025 2027 0
-2026 2027 0
-2027 2025 2026 0
-2023 2028 0
-2027 2028 0
-2028 2023 2027 0
-2029 1336 0
-2029 166 0
2029 -1336 -166 0
-2030 498 0
-2030 2029 0
2030 -498 -2029 0
-2028 2031 0
-2030 2031 0
-2031 2028 2030 0
-2032 -2031 0
2032 2031 0
-2033 2032 0
-2033 644 0
2033 -2032 -644 0
-2034 1994 0
-2034 2033 0
2034 -1994 -2033 0
-2035 643 0
-2035 2031 0
2035 -643 -2031 0
-2036 2010 0
-2036 2035 0
2036 -2010 -2035 0
-2037 643 0
-2037 2032 0
2037 -643 -2032 0
-2038 2010 0
-2038 2037 0
2038 -2010 -2037 0
-2039 2010 0
-2039 2033 0
2039 -2010 -2033 0
-2038 2040 0
-2039 2040 0
-2040 2038 2039 0
-2041 644 0
-2041 2031 0
2041 -644 -2031 0
-2042 2010 0
-2042 2041 0
2042 -2010 -2041 0
-2040 2043 0
-2042 2043 0
-2043 2040 2042 0
-2036 2044 0
-2043 2044 0
-2044 2036 2043 0
-2034 2045 0
-2044 2045 0
-2045 2034 2044 0
-2046 -2020 -2045 0
-2046 2020 2045 0
2046 -2020 2045 0
2046 2020 -2045 0
-1987 2047 0
-2046 2047 0
-2047 1987 2046 0
-2048 -1350 0
2048 1350 0
-2049 2048 0
-2049 104 0
2049 -2048 -104 0
-2050 498 0
-2050 2049 0
2050 -498 -2049 0
-2051 2048 0
-2051 103 0
2051 -2048 -103 0
-2052 2051 0
-2052 499 0
2052 -2051 -499 0
-2053 2049 0
-2053 499 0
2053 -2049 -499 0
-2052 2054 0
-2053 2054 0
-2054 2052 2053 0
-2050 2055 0
-2054 2055 0
-2055 2050 2054 0
-2056 104 0
-2056 1350 0
2056 -104 -1350 0
-2057 498 0
-2057 2056 0
2057 -498 -2056 0
-2055 2058 0
-2057 2058 0
-2058 2055 2057 0
-2059 -2058 0
2059 2058 0
-2060 644 0
-2060 2059 0
2060 -644 -2059 0
-2062 -2061 0
2062 2061 0
-2063 2062 0
-2063 643 0
2063 -2062 -643 0
-2064 2062 0
-2064 644 0
2064 -2062 -644 0
-2065 2061 0
-2065 644 0
2065 -2061 -644 0
-2064 2066 0
-2065 2066 0
-2066 2064 2065 0
-2063 2067 0
-2066 2067 0
-2067 2063 2066 0
-2068 2060 0
-2068 2067 0
2068 -2060 -2067 0
-2069 -2067 0
2069 2067 0
-2070 2060 0
-2070 2069 0
2070 -2060 -2069 0
-2071 643 0
-2071 2059 0
2071 -643 -2059 0
-2072 2071 0
-2072 2069 0
2072 -2071 -2069 0
-2070 2073 0
-2072 2073 0
-2073 2070 2072 0
-2074 2058 0
-2074 644 0
2074 -2058 -644 0
-2075 2074 0
-2075 2069 0
2075 -2074 -2069 0
-2073 2076 0
-2075 2076 0
-2076 2073 2075 0
-2077 2058 0
-2077 643 0
2077 -2058 -643 0
-2078 2077 0
-2078 2069 0
2078 -2077 -2069 0
-2076 2079 0
-2078 2079 0
-2079 2076 2078 0
-2068 2080 0
-2079 2080 0
-2080 2068 2079 0
-2081 104 0
-2081 1353 0
2081 -104 -1353 0
-2082 2081 0
-2082 618 0
2082 -2081 -618 0
-2083 -1353 0
2083 1353 0
-2084 2083 0
-2084 103 0
2084 -2083 -103 0
-2085 623 0
-2085 2084 0
2085 -623 -2084 0
-2086 2083 0
-2086 104 0
2086 -2083 -104 0
-2087 623 0
-2087 2086 0
2087 -623 -2086 0
-2085 2088 0
-2087 2088 0
-2088 2085 2087 0
-2089 618 0
-2089 2086 0
2089 -618 -2086 0
-2088 2090 0
-2089 2090 0
-2090 2088 2089 0
-2082 2091 0
-2090 2091 0
-2091 2082 2090 0
-2092 -2091 0
2092 2091 0
-2093 2092 0
-2093 644 0
2093 -2092 -644 0
-2094 2093 0
-2094 2067 0
2094 -2093 -2067 0
-2095 2093 0
-2095 2069 0
2095 -2093 -2069 0
-2096 2092 0
-2096 643 0
2096 -2092 -643 0
-2097 2096 0
-2097 2069 0
2097 -2096 -2069 0
-2095 2098 0
-2097 2098 0
-2098 2095 2097 0
-2099 2091 0
-2099 644 0
2099 -2091 -644 0
-2100 2099 0
-2100 2069 0
2100 -2099 -2069 0
-2098 2101 0
-2100 2101 0
-2101 2098 2100 0
-2102 2091 0
-2102 643 0
2102 -2091 -643 0
-2103 2069 0
-2103 2102 0
2103 -2069 -2102 0
-2101 2104 0
-2103 2104 0
-2104 2101 2103 0
-2094 2105 0
-2104 2105 0
-2105 2094 2104 0
-2106 -2080 -2105 0
-2106 2080 2105 0
2106 -2080 2105 0
2106 2080 -2105 0
-2047 2107 0
-2106 2107 0
-2107 2047 2106 0
-2109 -2108 0
2109 2108 0
-2110 2109 0
-2110 643 0
2110 -2109 -643 0
-2111 2109 0
-2111 644 0
2111 -2109 -644 0
-2112 2108 0
-2112 644 0
2112 -2108 -644 0
-2111 2113 0
-2112 2113 0
-2113 2111 2112 0
-2110 2114 0
-2113 2114 0
-2114 2110 2113 0
-2115 -2114 0
2115 2114 0
-2116 -1330 0
2116 1330 0
-2117 2116 0
-2117 102 0
2117 -2116 -102 0
-2118 623 0
-2118 2117 0
2118 -623 -2117 0
-2119 2116 0
-2119 113 0
2119 -2116 -113 0
-2120 2119 0
-2120 623 0
2120 -2119 -623 0
-2118 2121 0
-2120 2121 0
-2121 2118 2120 0
-2122 2119 0
-2122 618 0
2122 -2119 -618 0
-2121 2123 0
-2122 2123 0
-2123 2121 2122 0
-2124 113 0
-2124 1330 0
2124 -113 -1330 0
-2125 618 0
-2125 2124 0
2125 -618 -2124 0
-2123 2126 0
-2125 2126 0
-2126 2123 2125 0
-2127 -2126 0
2127 2126 0
-2128 2127 0
-2128 643 0
2128 -2127 -643 0
-2129 2115 0
-2129 2128 0
2129 -2115 -2128 0
-2130 2127 0
-2130 644 0
2130 -2127 -644 0
-2131 2130 0
-2131 2115 0
2131 -2130 -2115 0
-2129 2132 0
-2131 2132 0
-2132 2129 2131 0
-2133 2126 0
-2133 644 0
2133 -2126 -644 0
-2134 2133 0
-2134 2115 0
2134 -2133 -2115 0
-2132 2135 0
-2134 2135 0
-2135 2132 2134 0
-2136 2126 0
-2136 643 0
2136 -2126 -643 0
-2137 2136 0
-2137 2115 0
2137 -2136 -2115 0
-2135 2138 0
-2137 2138 0
-2138 2135 2137 0
-2139 2130 0
-2139 2114 0
2139 -2130 -2114 0
-2138 2140 0
-2139 2140 0
-2140 2138 2139 0
-2141 -1292 0
2141 1292 0
-2142 2141 0
-2142 102 0
2142 -2141 -102 0
-2143 2142 0
-2143 499 0
2143 -2142 -499 0
-2144 2141 0
-2144 113 0
2144 -2141 -113 0
-2145 2144 0
-2145 499 0
2145 -2144 -499 0
-2143 2146 0
-2145 2146 0
-2146 2143 2145 0
-2147 498 0
-2147 2144 0
2147 -498 -2144 0
-2146 2148 0
-2147 2148 0
-2148 2146 2147 0
-2149 1292 0
-2149 113 0
2149 -1292 -113 0
-2150 498 0
-2150 2149 0
2150 -498 -2149 0
-2148 2151 0
-2150 2151 0
-2151 2148 2150 0
-2152 -2151 0
2152 2151 0
-2153 2152 0
-2153 644 0
2153 -2152 -644 0
-2154 2153 0
-2154 2114 0
2154 -2153 -2114 0
-2155 2151 0
-2155 643 0
2155 -2151 -643 0
-2156 2155 0
-2156 2115 0
2156 -2155 -2115 0
-2157 643 0
-2157 2152 0
2157 -643 -2152 0
-2158 2157 0
-2158 2115 0
2158 -2157 -2115 0
-2159 2153 0
-2159 2115 0
2159 -2153 -2115 0
-2158 2160 0
-2159 2160 0
-2160 2158 2159 0
-2161 2151 0
-2161 644 0
2161 -2151 -644 0
-2162 2161 0
-2162 2115 0
2162 -2161 -2115 0
-2160 2163 0
-2162 2163 0
-2163 2160 2162 0
-2156 2164 0
-2163 2164 0
-2164 2156 2163 0
-2154 2165 0
-2164 2165 0
-2165 2154 2164 0
-2166 -2140 -2165 0
-2166 2140 2165 0
2166 -2140 2165 0
2166 2140 -2165 0
-2107 2167 0
-2166 2167 0
-2167 2107 2166 0
-2168 -1364 0
2168 1364 0
-2169 2168 0
-2169 26 0
2169 -2168 -26 0
-2170 498 0
-2170 2169 0
2170 -498 -2169 0
-2171 25 0
-2171 2168 0
2171 -25 -2168 0
-2172 2171 0
-2172 499 0
2172 -2171 -499 0
-2173 2169 0
-2173 499 0
2173 -2169 -499 0
-2172 2174 0
-2173 2174 0
-2174 2172 2173 0
-2170 2175 0
-2174 2175 0
-2175 2170 2174 0
-2176 1364 0
-2176 26 0
2176 -1364 -26 0
-2177 2176 0
-2177 498 0
2177 -2176 -498 0
-2175 2178 0
-2177 2178 0
-2178 2175 2177 0
-2179 712 0
-2179 2178 0
2179 -712 -2178 0
-2181 -2180 0
2181 2180 0
-2182 712 0
-2182 2181 0
2182 -712 -2181 0
-2183 -2182 0
2183 2182 0
-2184 2179 0
-2184 2183 0
2184 -2179 -2183 0
-2185 -2178 0
2185 2178 0
-2186 2185 0
-2186 712 0
2186 -2185 -712 0
-2187 2183 0
-2187 2186 0
2187 -2183 -2186 0
-2184 2188 0
-2187 2188 0
-2188 2184 2187 0
-2189 711 0
-2189 2185 0
2189 -711 -2185 0
-2190 2189 0
-2190 2183 0
2190 -2189 -2183 0
-2188 2191 0
-2190 2191 0
-2191 2188 2190 0
-2192 -1361 0
2192 1361 0
-2193 25 0
-2193 2192 0
2193 -25 -2192 0
-2194 623 0
-2194 2193 0
2194 -623 -2193 0
-2195 26 0
-2195 2192 0
2195 -26 -2192 0
-2196 2195 0
-2196 623 0
2196 -2195 -623 0
-2194 2197 0
-2196 2197 0
-2197 2194 2196 0
-2198 2195 0
-2198 618 0
2198 -2195 -618 0
-2197 2199 0
-2198 2199 0
-2199 2197 2198 0
-2200 1361 0
-2200 26 0
2200 -1361 -26 0
-2201 618 0
-2201 2200 0
2201 -618 -2200 0
-2199 2202 0
-2201 2202 0
-2202 2199 2201 0
-2203 2202 0
-2203 712 0
2203 -2202 -712 0
-2204 2203 0
-2204 2183 0
2204 -2203 -2183 0
-2205 -2202 0
2205 2202 0
-2206 2205 0
-2206 712 0
2206 -2205 -712 0
-2207 2206 0
-2207 2183 0
2207 -2206 -2183 0
-2204 2208 0
-2207 2208 0
-2208 2204 2207 0
-2209 711 0
-2209 2205 0
2209 -711 -2205 0
-2210 2209 0
-2210 2183 0
2210 -2209 -2183 0
-2208 2211 0
-2210 2211 0
-2211 2208 2210 0
-2212 -2191 -2211 0
-2212 2191 2211 0
2212 -2191 2211 0
2212 2191 -2211 0
-2167 2213 0
-2212 2213 0
-2213 2167 2212 0
-2214 -1253 0
2214 1253 0
-2215 368 0
-2215 2214 0
2215 -368 -2214 0
-2216 2215 0
-2216 499 0
2216 -2215 -499 0
-2217 21 0
-2217 2214 0
2217 -21 -2214 0
-2218 2217 0
-2218 499 0
2218 -2217 -499 0
-2216 2219 0
-2218 2219 0
-2219 2216 2218 0
-2220 2215 0
-2220 498 0
2220 -2215 -498 0
-2219 2221 0
-2220 2221 0
-2221 2219 2220 0
-2222 1253 0
-2222 368 0
2222 -1253 -368 0
-2223 2222 0
-2223 498 0
2223 -2222 -498 0
-2221 2224 0
-2223 2224 0
-2224 2221 2223 0
-2225 2224 0
-2225 644 0
2225 -2224 -644 0
-2227 -2226 0
2227 2226 0
-2228 2227 0
-2228 643 0
2228 -2227 -643 0
-2229 2227 0
-2229 644 0
2229 -2227 -644 0
-2230 2226 0
-2230 644 0
2230 -2226 -644 0
-2229 2231 0
-2230 2231 0
-2231 2229 2230 0
-2228 2232 0
-2231 2232 0
-2232 2228 2231 0
-2233 -2232 0
2233 2232 0
-2234 2225 0
-2234 2233 0
2234 -2225 -2233 0
-2235 -2224 0
2235 2224 0
-2236 643 0
-2236 2235 0
2236 -643 -2235 0
-2237 2236 0
-2237 2233 0
2237 -2236 -2233 0
-2238 644 0
-2238 2235 0
2238 -644 -2235 0
-2239 2238 0
-2239 2233 0
2239 -2238 -2233 0
-2237 2240 0
-2239 2240 0
-2240 2237 2239 0
-2234 2241 0
-2240 2241 0
-2241 2234 2240 0
-2242 2224 0
-2242 643 0
2242 -2224 -643 0
-2243 2233 0
-2243 2242 0
2243 -2233 -2242 0
-2241 2244 0
-2243 2244 0
-2244 2241 2243 0
-2245 2238 0
-2245 2232 0
2245 -2238 -2232 0
-2244 2246 0
-2245 2246 0
-2246 2244 2245 0
-2247 1250 0
-2247 368 0
2247 -1250 -368 0
-2248 618 0
-2248 2247 0
2248 -618 -2247 0
-2249 -1250 0
2249 1250 0
-2250 2249 0
-2250 21 0
2250 -2249 -21 0
-2251 2250 0
-2251 623 0
2251 -2250 -623 0
-2252 2249 0
-2252 368 0
2252 -2249 -368 0
-2253 2252 0
-2253 623 0
2253 -2252 -623 0
-2251 2254 0
-2253 2254 0
-2254 2251 2253 0
-2255 2252 0
-2255 618 0
2255 -2252 -618 0
-2254 2256 0
-2255 2256 0
-2256 2254 2255 0
-2248 2257 0
-2256 2257 0
-2257 2248 2256 0
-2258 -2257 0
2258 2257 0
-2259 2258 0
-2259 644 0
2259 -2258 -644 0
-2260 2259 0
-2260 2232 0
2260 -2259 -2232 0
-2261 2257 0
-2261 643 0
2261 -2257 -643 0
-2262 2233 0
-2262 2261 0
2262 -2233 -2261 0
-2263 643 0
-2263 2258 0
2263 -643 -2258 0
-2264 2263 0
-2264 2233 0
2264 -2263 -2233 0
-2265 2259 0
-2265 2233 0
2265 -2259 -2233 0
-2264 2266 0
-2265 2266 0
-2266 2264 2265 0
-2267 2257 0
-2267 644 0
2267 -2257 -644 0
-2268 2233 0
-2268 2267 0
2268 -2233 -2267 0
-2266 2269 0
-2268 2269 0
-2269 2266 2268 0
-2262 2270 0
-2269 2270 0
-2270 2262 2269 0
-2260 2271 0
-2270 2271 0
-2271 2260 2270 0
-2272 -2246 -2271 0
-2272 2246 2271 0
2272 -2246 2271 0
2272 2246 -2271 0
-2213 2273 0
-2272 2273 0
-2273 2213 2272 0
-2274 -1240 0
2274 1240 0
-2275 39 0
-2275 2274 0
2275 -39 -2274 0
-2276 623 0
-2276 2275 0
2276 -623 -2275 0
-2277 2274 0
-2277 43 0
2277 -2274 -43 0
-2278 623 0
-2278 2277 0
2278 -623 -2277 0
-2276 2279 0
-2278 2279 0
-2279 2276 2278 0
-2280 618 0
-2280 2277 0
2280 -618 -2277 0
-2279 2281 0
-2280 2281 0
-2281 2279 2280 0
-2282 1240 0
-2282 43 0
2282 -1240 -43 0
-2283 618 0
-2283 2282 0
2283 -618 -2282 0
-2281 2284 0
-2283 2284 0
-2284 2281 2283 0
-2285 -2284 0
2285 2284 0
-2286 2285 0
-2286 644 0
2286 -2285 -644 0
-2288 -2287 0
2288 2287 0
-2289 643 0
-2289 2288 0
2289 -643 -2288 0
-2290 2288 0
-2290 644 0
2290 -2288 -644 0
-2291 2287 0
-2291 644 0
2291 -2287 -644 0
-2290 2292 0
-2291 2292 0
-2292 2290 2291 0
-2289 2293 0
-2292 2293 0
-2293 2289 2292 0
-2294 2286 0
-2294 2293 0
2294 -2286 -2293 0
-2295 -2293 0
2295 2293 0
-2296 2286 0
-2296 2295 0
2296 -2286 -2295 0
-2297 2285 0
-2297 643 0
2297 -2285 -643 0
-2298 2297 0
-2298 2295 0
2298 -2297 -2295 0
-2296 2299 0
-2298 2299 0
-2299 2296 2298 0
-2300 2284 0
-2300 644 0
2300 -2284 -644 0
-2301 2295 0
-2301 2300 0
2301 -2295 -2300 0
-2299 2302 0
-2301 2302 0
-2302 2299 2301 0
-2303 2284 0
-2303 643 0
2303 -2284 -643 0
-2304 2303 0
-2304 2295 0
2304 -2303 -2295 0
-2302 2305 0
-2304 2305 0
-2305 2302 2304 0
-2294 2306 0
-2305 2306 0
-2306 2294 2305 0
-2307 1228 0
-2307 43 0
2307 -1228 -43 0
-2308 498 0
-2308 2307 0
2308 -498 -2307 0
-2309 -1228 0
2309 1228 0
-2310 2309 0
-2310 43 0
2310 -2309 -43 0
-2311 2310 0
-2311 498 0
2311 -2310 -498 0
-2312 2310 0
-2312 499 0
2312 -2310 -499 0
-2313 39 0
-2313 2309 0
2313 -39 -2309 0
-2314 2313 0
-2314 499 0
2314 -2313 -499 0
-2312 2315 0
-2314 2315 0
-2315 2312 2314 0
-2311 2316 0
-2315 2316 0
-2316 2311 2315 0
-2308 2317 0
-2316 2317 0
-2317 2308 2316 0
-2318 2317 0
-2318 643 0
2318 -2317 -643 0
-2319 2318 0
-2319 2295 0
2319 -2318 -2295 0
-2320 2317 0
-2320 644 0
2320 -2317 -644 0
-2321 2320 0
-2321 2295 0
2321 -2320 -2295 0
-2322 -2317 0
2322 2317 0
-2323 2322 0
-2323 644 0
2323 -2322 -644 0
-2324 2323 0
-2324 2295 0
2324 -2323 -2295 0
-2325 2322 0
-2325 643 0
2325 -2322 -643 0
-2326 2325 0
-2326 2295 0
2326 -2325 -2295 0
-2324 2327 0
-2326 2327 0
-2327 2324 2326 0
-2321 2328 0
-2327 2328 0
-2328 2321 2327 0
-2319 2329 0
-2328 2329 0
-2329 2319 2328 0
-2330 2323 0
-2330 2293 0
2330 -2323 -2293 0
-2329 2331 0
-2330 2331 0
-2331 2329 2330 0
-2332 -2306 -2331 0
-2332 2306 2331 0
2332 -2306 2331 0
2332 2306 -2331 0
-2273 2333 0
-2332 2333 0
-2333 2273 2332 0
-633 2334 0
-2333 2334 0
-2334 633 2333 0
-2334 2335 0
-637 2335 0
-2335 2334 637 0
-637 2336 0
-2335 2336 0
-2336 637 2335 0
-2336 2337 0
-637 2337 0
-2337 2336 637 0
-637 2338 0
-2337 2338 0
-2338 637 2337 0
-2338 2339 0
-637 2339 0
-2339 2338 637 0
-2339 2340 0
-637 2340 0
-2340 2339 637 0
-633 2341 0
-2340 2341 0
-2341 633 2340 0
-633 2342 0
-2341 2342 0
-2342 633 2341 0
-633 2343 0
-2342 2343 0
-2343 633 2342 0
-633 2344 0
-2343 2344 0
-2344 633 2343 0
-633 2345 0
-2344 2345 0
-2345 633 2344 0
-633 2346 0
-2345 2346 0
-2346 633 2345 0
-2346 2347 0
-637 2347 0
-2347 2346 637 0
-633 2348 0
-2347 2348 0
-2348 633 2347 0
-2348 2349 0
-637 2349 0
-2349 2348 637 0
2349 0
